 Compiled for linux_x86_64_gfortran on Wed Nov 21 15:08:09 2012
 from source code version eaed21d6e002+  2012-10-31
 using fast optimisation, fftw3 FFTs and openblas LAPACK and BLAS.

 Atomic calculation performed for O: 1s2 2s2 2p4

 Converged in 60 iterations to an ae energy of -2027.926 eV

   | Pseudopotential Report - Date of generation  5-05-2016   |
   | Element: O Ionic charge:  6.00 Level of theory: LDA      |
   |               Reference Electronic Structure             |
   |         Orbital         Occupation         Energy        |
   |            2s              2.000           -0.873        |
   |            2p              4.000           -0.338        |
   |                 Pseudopotential Definition               |
   |        Beta     l      e      Rc     scheme   norm       |
   |          1      0   -0.873   1.300     qc      0         |
   |          2      0    0.250   1.300     qc      0         |
   |          3      1   -0.338   1.300     qc      0         |
   |          4      1    0.250   1.300     qc      0         |
   |         loc     2    0.000   1.004     pn      0         |
   | Augmentation charge Rinner = 0.701                       |
   | Partial core correction Rc = 0.701                       |
   | "2|1.0|1.3|0.7|13|16|18|20:21(qc=7)"                     |
   |      Author: Chris J. Pickard, Cambridge University      |

 Atomic calculation performed for Mg: 1s2 2s2 2p6 3s2

[...]

 Identity difference:   5.17267234911703770E-004

   | Pseudopotential Report - Date of generation  5-05-2016   |
   | Element: Mg Ionic charge:  8.00 Level of theory: LDA     |
   |               Reference Electronic Structure             |
   |         Orbital         Occupation         Energy        |
   |            2p              6.000           -1.717        |
   |            3s              2.000           -0.176        |
   |                 Pseudopotential Definition               |
   |        Beta     l      e      Rc     scheme   norm       |
   |          1      0   -0.176   1.994     qc      1         |
   |          2      1   -1.717   1.994     qc      0         |
   |          3      1    0.000   1.994     qc      0         |
   |          4      1    0.250   1.994     qc      0         |
   |         loc     2    0.000   1.605     pn      0         |
   | Augmentation charge Rinner = 1.405                       |
   | Partial core correction Rc = 1.405                       |
   | "2|1.6|2|1.4|6|7|8|30NH:21U:31UU:32LGG(qc=4.5)[]"        |
   |      Author: Chris J. Pickard, Cambridge University      |

 Doing a self consistent calculation for the test configuration

[...]

 AE eigenvalue nl 10 =      -46.06264936
 AE eigenvalue nl 20 =       -2.91364591
 AE eigenvalue nl 21 =       -1.71672732
 AE eigenvalue nl 30 =       -0.17593422
 PS eigenvalue nl 21 =       -1.71622098
 PS eigenvalue nl 30 =       -0.17592300

 Atomic calculation performed for Ca: 1s2 2s2 2p6 3s2 3p6 4s2

[...]

   | Pseudopotential Report - Date of generation  5-05-2016   |
   | Element: Ca Ionic charge: 10.00 Level of theory: LDA     |
   |               Reference Electronic Structure             |
   |         Orbital         Occupation         Energy        |
   |            3s              2.000           -1.721        |
   |            3p              6.000           -1.028        |
   |            4s              2.000           -0.142        |
   |                 Pseudopotential Definition               |
   |        Beta     l      e      Rc     scheme   norm       |
   |          1      0   -1.721   2.005     qc      0         |
   |          2      0   -0.142   2.005     qc      0         |
   |          3      1   -1.028   2.005     qc      0         |
   |          4      1    0.250   2.005     qc      0         |
   |          5      2    0.000   2.005     qc      0         |
   |          6      2    1.000   2.005     qc      0         |
   |         loc     3    0.000   1.601     pn      0         |
   | Augmentation charge Rinner = 1.401                       |
   | Partial core correction Rc = 1.401                       |
   | "3|1.6|2.0|1.4|7|9|10|30U:40U:31:32U=0U=1.0"             |
   |      Author: Chris J. Pickard, Cambridge University      |

 Pseudo atomic calculation performed for O 2s2 2p4

 Converged in 30 iterations to a total energy of -432.5600 eV

 Pseudo atomic calculation performed for Mg 2p6 3s2

[...]

 Pseudo atomic calculation performed for Ca 3s2 3p6 4s2

[...]

 Calculation parallelised over 2 processes.
 Data is distributed by k-point(2-way)

 ************************************ Title ************************************
 MgO

 ***************************** General Parameters ******************************

 output verbosity                               : normal  (1)
 write checkpoint data to                       : test_10.check
 type of calculation                            : geometry optimization
 stress calculation                             : on
 density difference calculation                 : off
 electron localisation func (ELF) calculation   : off
 Hirshfeld analysis                             : off
 unlimited duration calculation
 timing information                             : on
 write final potential to formatted file        : off
 write final density to formatted file          : off
 write BibTeX reference list                    : on

 output         length unit                     : A
 output           mass unit                     : amu
 output           time unit                     : ps
 output         charge unit                     : e
 output         energy unit                     : eV
 output          force unit                     : eV/A
 output       velocity unit                     : A/ps
 output       pressure unit                     : GPa
 output     inv_length unit                     : 1/A
 output      frequency unit                     : cm-1
 output force constant unit                     : eV/A**2
 output         volume unit                     : A**3
 output   IR intensity unit                     : (D/A)**2/amu
 output         dipole unit                     : D
 output         efield unit                     : eV/A/e
 output        entropy unit                     : J/mol/K

 wavefunctions paging                           : none
 random number generator seed                   : randomised (125238851)
 data distribution                              : optimal for this architecture
 optimization strategy                          : maximize speed(+++)

 *********************** Exchange-Correlation Parameters ***********************

 using functional                               : Local Density Approximation
 Divergence correction                          : off
 DFT+D: Semi-empirical dispersion correction    : off

 ************************* Pseudopotential Parameters **************************

 pseudopotential representation                 : reciprocal space
 <beta|phi> representation                      : reciprocal space

 **************************** Basis Set Parameters *****************************

 plane wave basis set cut-off                   :   450.0000   eV
 size of standard grid                          :     2.0000
 size of   fine   gmax                          :    21.7358   1/A
 largest prime factor in FFT                    :          5
 finite basis set correction                    : automatic
 number of sample energies                      :          3
           sample  spacing                      :     5.0000   eV

 **************************** Electronic Parameters ****************************

 number of  electrons                           :  204.0
 net charge of system                           :  0.000
 net spin   of system                           :  0.000
 number of  up  spins                           :  102.0
 number of down spins                           :  102.0
 treating system as non-spin-polarized
 number of bands                                :        122

 ********************* Electronic Minimization Parameters **********************

 Method: Treating system as metallic with density mixing treatment of electrons,
         and number of  SD  steps               :          1
         and number of  CG  steps               :          4

 total energy / atom convergence tol.           : 0.1000E-06   eV
 eigen-energy convergence tolerance             : 0.2647E-07   eV
 max force / atom convergence tol.              : ignored
 convergence tolerance window                   :          3   cycles
 max. number of SCF cycles                      :         60
 number of fixed-spin iterations                :         10
 smearing scheme                                : Gaussian
 smearing width                                 : 0.2000       eV
 Fermi energy convergence tolerance             : 0.2647E-08   eV
 periodic dipole correction                     : NONE

 ************************** Density Mixing Parameters **************************

 density-mixing scheme                          : Pulay
 max. length of mixing history                  :         30
 charge density mixing amplitude                : 0.8000
 cut-off energy for mixing                      :  450.0       eV
 charge density mixing g-vector                 :  1.500       1/A

 *********************** Population Analysis Parameters ************************

 Population analysis with cutoff                :  3.000       A

 ********************** Geometry Optimization Parameters ***********************

 optimization method                            : BFGS
 variable cell method                           : fixed basis quality
 max. number of steps                           :         30
 estimated bulk modulus                         :  500.0       GPa
 estimated <frequency>                          :  1668.       cm-1
 geom line minimiser                            : on
 with line minimiser tolerance                  :     0.4000
 total energy convergence tolerance             : 0.2000E-04   eV/atom
        max ionic |force| tolerance             : 0.5000E-01   eV/A
 max ionic |displacement| tolerance             : 0.1000E-02   A
   max |stress component| tolerance             : 0.1000       GPa
 convergence tolerance window                   :          2   steps
 backup results every                           :          5   steps

                                      Unit Cell
        Real Lattice(A)                      Reciprocal Lattice(1/A)
   8.4000000   0.0000000   0.0000000        0.7479983   0.0000000   0.0000000
   0.0000000   8.4000000   0.0000000        0.0000000   0.7479983   0.0000000
   0.0000000   0.0000000   8.4000000        0.0000000   0.0000000   0.7479983

                       Lattice parameters(A)       Cell Angles
                    a =    8.400000          alpha =   90.000000
                    b =    8.400000          beta  =   90.000000
                    c =    8.400000          gamma =   90.000000

                       Current cell volume =  592.704000       A**3

                                     Cell Contents
[...]
 geom line minimiser                            : on
 with line minimiser tolerance                  :     0.4000
 total energy convergence tolerance             : 0.2000E-04   eV/atom
        max ionic |force| tolerance             : 0.5000E-01   eV/A
 max ionic |displacement| tolerance             : 0.1000E-02   A
   max |stress component| tolerance             : 0.1000       GPa
 convergence tolerance window                   :          2   steps
 backup results every                           :          5   steps

[...]

                                     Cell Contents
                         Total number of ions in cell =   27
                      Total number of species in cell =    3
                        Max number of any one species =   14

[...]

                         No user defined ionic velocities

                                   Details of Species

                               Mass of species in AMU
                                    O   15.9994000
                                    Mg   24.3050000
                                    Ca   40.0780000

                          Electric Quadrupole Moment (Barn)
                                    O   -0.0255800 Isotope 17
                                    Mg    0.1994000 Isotope 25
                                    Ca   -0.0408000 Isotope 43

                          Files used for pseudopotentials:
                                    O Pseudopotential generated on-the-fly
                                    Mg Pseudopotential generated on-the-fly
                                    Ca Pseudopotential generated on-the-fly

                              k-Points For BZ Sampling
                       MP grid size for SCF calculation is  3  3  3
                         Number of kpoints used =          10

             +  Number       Fractional coordinates        Weight  +
             +     1  -0.333333  -0.333333   0.000000   0.0740741  +
             +     2  -0.333333   0.000000  -0.333333   0.1481481  +
             +     3  -0.333333   0.333333   0.000000   0.0740741  +
             +     4   0.000000   0.000000  -0.333333   0.0740741  +
             +     5   0.000000   0.000000   0.000000   0.0370370  +
             +     6   0.000000   0.333333   0.000000   0.1481481  +
             +     7   0.000000   0.333333   0.333333   0.1481481  +
             +     8   0.333333  -0.333333  -0.333333   0.0740741  +
             +     9   0.333333  -0.333333   0.333333   0.0740741  +
             +    10   0.333333   0.333333  -0.333333   0.1481481  +

                               Symmetry and Constraints

                      Number of symmetry operations   =           2
                      Number of ionic constraints     =           3
                      Maximum deviation from symmetry = 0.839999E-09     ANG
               Point group of crystal =     3: Cs, m, m
           Set iprint > 1 for details on symmetry rotations/translations

                          Centre of mass is constrained
             Set iprint > 1 for details of linear ionic constraints

                         Number of cell constraints= 5
                         Cell constraints are:  1 1 1 0 0 0

                         External pressure/stress (GPa)
                          0.00000   0.00000   0.00000
                                    0.00000   0.00000
                                              0.00000

[...]

Calculating total energy with cut-off of  450.000eV.
------------------------------------------------------------------------ <-- SCF
SCF loop      Energy           Fermi           Energy gain       Timer   <-- SCF
                               energy          per atom          (sec)   <-- SCF
------------------------------------------------------------------------ <-- SCF
Initial  -1.92980771E+004  0.00000000E+000                     30501.00  <-- SCF
      1  -1.92991617E+004  1.30157638E+000   4.01706692E-002   30650.24  <-- SCF
      2  -1.92991618E+004  1.30157837E+000   4.28952283E-006   30819.98  <-- SCF
      3  -1.92991647E+004  1.32179230E+000   1.08573317E-004   30931.01  <-- SCF
      4  -1.92991683E+004  1.30821868E+000   1.31219239E-004   31036.83  <-- SCF
      5  -1.92991633E+004  1.29434631E+000  -1.82725140E-004   31165.52  <-- SCF
      6  -1.92991660E+004  1.30052167E+000   9.99660313E-005   31275.45  <-- SCF
      7  -1.92991617E+004  1.30674077E+000  -1.60162236E-004   31384.74  <-- SCF
      8  -1.92991618E+004  1.30698635E+000   1.53847157E-006   31490.99  <-- SCF
      9  -1.92991627E+004  1.30842547E+000   3.36086321E-005   31596.79  <-- SCF
     10  -1.92991617E+004  1.30813078E+000  -3.74768538E-005   31700.95  <-- SCF
     11  -1.92991617E+004  1.30717742E+000   2.07902659E-006   31842.30  <-- SCF
     12  -1.92991618E+004  1.30658060E+000   2.86354195E-006   31945.96  <-- SCF
     13  -1.92991616E+004  1.30622649E+000  -7.22434937E-006   32048.79  <-- SCF
     14  -1.92991616E+004  1.30681016E+000   1.84210562E-006   32151.37  <-- SCF
     15  -1.92991616E+004  1.30601391E+000  -1.34937443E-007   32252.15  <-- SCF
     16  -1.92991616E+004  1.30670028E+000  -2.47608527E-006   32385.52  <-- SCF
     17  -1.92991616E+004  1.30670117E+000   1.29449209E-007   32456.01  <-- SCF
     18  -1.92991616E+004  1.30672822E+000   4.09681159E-009   32527.68  <-- SCF
     19  -1.92991616E+004  1.30673687E+000   2.76416768E-009   32600.11  <-- SCF
------------------------------------------------------------------------ <-- SCF

[...]

 For future reference: finite basis dEtot/dlog(Ecut) =     -31.555262eV
 Total energy corrected for finite basis set =  -19299.156374 eV

[...]

 *********** Constrained Stress Tensor ***********
 *          Cartesian components (GPa)           *
 *             x             y             z     *
 *  x     15.191466     -0.000000      0.000000  *
 *  y     -0.000000     15.191466     -0.000000  *
 *  z      0.000000     -0.000000     15.191466  *
 *  Pressure:  -15.1915                          *
 BFGS: finished iteration     0 with enthalpy= -1.92991564E+004 eV

[...]

------------------------------------------------------------------------ <-- SCF
SCF loop      Energy           Fermi           Energy gain       Timer   <-- SCF
                               energy          per atom          (sec)   <-- SCF
------------------------------------------------------------------------ <-- SCF
Initial  -1.92947950E+004  0.00000000E+000                     33014.56  <-- SCF
      1  -1.93092087E+004  2.38439742E+000   5.33840476E-001   33117.69  <-- SCF
      2  -1.93095256E+004  2.38003326E+000   1.17390406E-002   33255.84  <-- SCF
      3  -1.93206148E+004  1.03616761E+000   4.10711142E-001   33367.85  <-- SCF
      4  -1.93052336E+004  1.90587653E+000  -5.69677318E-001   33490.52  <-- SCF
      5  -1.93039265E+004  1.82647894E+000  -4.84100799E-002   33650.84  <-- SCF
      6  -1.93026958E+004  1.77107937E+000  -4.55821687E-002   33779.55  <-- SCF
      7  -1.93025037E+004  1.63455753E+000  -7.11452284E-003   33897.00  <-- SCF
      8  -1.93019988E+004  1.55695586E+000  -1.87003720E-002   34026.33  <-- SCF
      9  -1.93018830E+004  1.52886262E+000  -4.28804636E-003   34227.77  <-- SCF
     10  -1.93018253E+004  1.52596689E+000  -2.13509381E-003   34342.78  <-- SCF
     11  -1.93019071E+004  1.52396202E+000   3.02788243E-003   34457.04  <-- SCF
     12  -1.93017948E+004  1.48508413E+000  -4.15760516E-003   34566.52  <-- SCF
     13  -1.93017902E+004  1.47918905E+000  -1.72621336E-004   34698.75  <-- SCF
     14  -1.93017864E+004  1.47908829E+000  -1.40516044E-004   34825.37  <-- SCF
     15  -1.93017804E+004  1.47927797E+000  -2.22854863E-004   34937.09  <-- SCF
     16  -1.93017782E+004  1.48233113E+000  -7.96433140E-005   35048.47  <-- SCF
     17  -1.93017787E+004  1.48282746E+000   1.63492168E-005   35158.38  <-- SCF
     18  -1.93017783E+004  1.48111373E+000  -1.37254641E-005   35274.80  <-- SCF
     19  -1.93017783E+004  1.48091876E+000   9.64489772E-007   35384.46  <-- SCF
     20  -1.93017783E+004  1.48099672E+000   5.35699707E-008   35475.57  <-- SCF
     21  -1.93017783E+004  1.48089485E+000  -2.04010241E-007   35555.98  <-- SCF
     22  -1.93017783E+004  1.48091020E+000  -1.37721432E-010   35625.39  <-- SCF
     23  -1.93017783E+004  1.48093140E+000   7.07397773E-010   35706.08  <-- SCF
------------------------------------------------------------------------ <-- SCF

Final energy, E             =  -19301.08263603     eV
Final free energy (E-TS)    =  -19301.77830905     eV
(energies not corrected for finite basis set)

NB est. 0K energy (E-0.5TS)      =  -19301.43047254     eV

 *********************************** Forces ***********************************
 *                        Cartesian components (eV/A)                         *
 *                   x                    y                    z              *
 * O         1      1.38348              1.25278              1.19331         *
 * O         2     -1.22885              1.22885              1.10437         *
 * O         3     -0.00663              0.00663              1.01800         *
 * O         4      1.24626             -1.24626              1.39807         *
 * O         5     -1.25278             -1.38348              1.19331         *
 * O         6     -0.24603              1.17183              0.39581         *
 * O         7      1.25374              0.13775              0.40736         *
 * O         8     -1.17183              0.24603              0.39581         *
 * O         9     -0.13775             -1.25374              0.40736         *
 * O        10      1.53374              1.40073             -1.56547         *
 * O        11     -1.32285              1.32285             -1.39075         *
 * O        12     -0.00966              0.00966             -1.34795         *
 * O        13      1.39300             -1.39300             -1.76737         *
 * O        14     -1.40073             -1.53374             -1.56547         *
 * Mg        1      0.02282              1.72087              2.77178         *
 * Mg        2      1.72410             -0.00096              2.70533         *
 * Mg        3     -1.72087             -0.02282              2.77178         *
 * Mg        4      0.00096             -1.72410              2.70533         *
 * Mg        5     -2.68289              2.68289             -0.05740         *
 * Ca        1      2.72365              3.43364             -0.10326         *
 * Ca        2      0.08173             -0.08173             -0.28229         *
 * Ca        3      3.21766             -3.21766             -0.10311         *
 * Ca        4     -3.43364             -2.72365             -0.10326         *
 * Ca        5      0.03046              3.17615             -2.59112         *
 * Ca        6      3.17293             -0.00616             -2.49954         *
 * Ca        7     -3.17615             -0.03046             -2.59112         *
 * Ca        8      0.00616             -3.17293             -2.49954         *

 ***************** Stress Tensor *****************
 *          Cartesian components (GPa)           *
 *             x             y             z     *
 *  x     15.173515     -0.394689     -0.046043  *
 *  y     -0.394689     15.173515      0.046043  *
 *  z     -0.046043      0.046043     15.093062  *
 *  Pressure:  -15.1467                          *

 *********** Constrained Stress Tensor ***********
 *          Cartesian components (GPa)           *
 *             x             y             z     *
 *  x     15.454138     -0.000000      0.000000  *
 *  y     -0.000000     15.454138     -0.000000  *
 *  z      0.000000     -0.000000     15.454138  *
 *  Pressure:  -15.4541                          *

 +------------+-------------+-------------+-----------------+ <-- min BFGS
 |    Step    |   lambda    |   F.delta   |    enthalpy     | <-- min BFGS
 +------------+-------------+-------------+-----------------+ <-- min BFGS
 |  previous  |    0.000000 |    0.093928 |   -19299.156374 | <-- min BFGS
 | trial step |    1.000000 |    0.093797 |   -19301.761154 | <-- min BFGS
 +------------+-------------+-------------+-----------------+ <-- min BFGS

 BFGS: finished iteration     1 with enthalpy= -1.93017612E+004 eV

 +-----------+-----------------+-----------------+------------+-----+ <-- BFGS
 | Parameter |      value      |    tolerance    |    units   | OK? | <-- BFGS
 +-----------+-----------------+-----------------+------------+-----+ <-- BFGS
 |  dE/ion   |   9.647331E-002 |   2.000000E-005 |         eV | No  | <-- BFGS
 |  |F|max   |   4.551628E+000 |   5.000000E-002 |       eV/A | No  | <-- BFGS
 |  |dR|max  |   1.795251E-002 |   1.000000E-003 |          A | No  | <-- BFGS
 |   Smax    |   1.514668E+001 |   1.000000E-001 |        GPa | No  | <-- BFGS
 +-----------+-----------------+-----------------+------------+-----+ <-- BFGS

 Starting BFGS iteration          2 ...

 +------------+-------------+-------------+-----------------+ <-- min BFGS
 |    Step    |   lambda    |   F.delta   |    enthalpy     | <-- min BFGS
 +------------+-------------+-------------+-----------------+ <-- min BFGS
 |  previous  |    0.000000 |    0.093681 |   -19301.761154 | <-- min BFGS
 +------------+-------------+-------------+-----------------+ <-- min BFGS

 BFGS: starting iteration         2 with trial guess (lambda=  1.000000)

                                      Unit Cell
        Real Lattice(A)              Reciprocal Lattice(1/A)
   8.2334629   0.0000000  -0.0000000        0.7631279  -0.0000000   0.0000000
   0.0000000   8.2334629   0.0000000       -0.0000000   0.7631279  -0.0000000
  -0.0000000   0.0000000   8.2334629        0.0000000  -0.0000000   0.7631279

                       Lattice parameters(A)       Cell Angles
                    a =    8.233463          alpha =   90.000000
                    b =    8.233463          beta  =   90.000000
                    c =    8.233463          gamma =   90.000000

                Current cell volume =  558.145724 A**3

                                     Cell Contents

            x  Element    Atom        Fractional coordinates of atoms  x
            x            Number           u          v          w      x
            x  O            1         0.001273   0.001150   0.001111   x
            x  O            2         0.665534   0.001132   0.001006   x
            x  O            3         0.333327   0.333339   0.000942   x
            x  O            4         0.001144   0.665523   0.001305   x
            x  O            5         0.665517   0.665394   0.001111   x
            x  O            6         0.333098   0.001078   0.333709   x
            x  O            7         0.001152   0.333465   0.333719   x
            x  O            8         0.665589   0.333569   0.333709   x
            x  O            9         0.333201   0.665514   0.333719   x
            x  O           10         0.001424   0.001299   0.665217   x
            x  O           11         0.665433   0.001233   0.665399   x
            x  O           12         0.333324   0.333342   0.665422   x
            x  O           13         0.001292   0.665375   0.665025   x
            x  O           14         0.665368   0.665243   0.665217   x
            x  Mg           1         0.333355   0.001572   0.002578   x
            x  Mg           2         0.001575   0.333332   0.002517   x
            x  Mg           3         0.665095   0.333312   0.002578   x
            x  Mg           4         0.333334   0.665092   0.002517   x
            x  Mg           5         0.664186   0.002481   0.333280   x
            x  Ca           1         0.002545   0.003234   0.333238   x
            x  Ca           2         0.333407   0.333259   0.333079   x
            x  Ca           3         0.003029   0.663638   0.333238   x
            x  Ca           4         0.663432   0.664122   0.333238   x
            x  Ca           5         0.333362   0.002998   0.664240   x
            x  Ca           6         0.002995   0.333328   0.664323   x
            x  Ca           7         0.663669   0.333304   0.664240   x
            x  Ca           8         0.333339   0.663672   0.664323   x

------------------------------------------------------------------------ <-- SCF
SCF loop      Energy           Fermi           Energy gain       Timer   <-- SCF
                               energy          per atom          (sec)   <-- SCF
------------------------------------------------------------------------ <-- SCF
Initial  -1.92974760E+004  0.00000000E+000                     39698.96  <-- SCF
      1  -1.93115857E+004  2.56674735E+000   5.22581579E-001   40191.80  <-- SCF