 Compiled for linux_x86_64_gfortran on Wed Nov 21 15:08:09 2012
 from source code version eaed21d6e002+  2012-10-31
 using fast optimisation, fftw3 FFTs and openblas LAPACK and BLAS.

 Atomic calculation performed for O: 1s2 2s2 2p4

 Converged in 60 iterations to an ae energy of -2027.926 eV

   | Pseudopotential Report - Date of generation  5-05-2016   |
   | Element: O Ionic charge:  6.00 Level of theory: LDA      |
   |               Reference Electronic Structure             |
   |         Orbital         Occupation         Energy        |
   |            2s              2.000           -0.873        |
   |            2p              4.000           -0.338        |
   |                 Pseudopotential Definition               |
   |        Beta     l      e      Rc     scheme   norm       |
   |          1      0   -0.873   1.300     qc      0         |
   |          2      0    0.250   1.300     qc      0         |
   |          3      1   -0.338   1.300     qc      0         |
   |          4      1    0.250   1.300     qc      0         |
   |         loc     2    0.000   1.004     pn      0         |
   | Augmentation charge Rinner = 0.701                       |
   | Partial core correction Rc = 0.701                       |
   | "2|1.0|1.3|0.7|13|16|18|20:21(qc=7)"                     |
   |      Author: Chris J. Pickard, Cambridge University      |

 Atomic calculation performed for Mg: 1s2 2s2 2p6 3s2

[...]

 Identity difference:   5.17267234911703770E-004

   | Pseudopotential Report - Date of generation  5-05-2016   |
   | Element: Mg Ionic charge:  8.00 Level of theory: LDA     |
   |               Reference Electronic Structure             |
   |         Orbital         Occupation         Energy        |
   |            2p              6.000           -1.717        |
   |            3s              2.000           -0.176        |
   |                 Pseudopotential Definition               |
   |        Beta     l      e      Rc     scheme   norm       |
   |          1      0   -0.176   1.994     qc      1         |
   |          2      1   -1.717   1.994     qc      0         |
   |          3      1    0.000   1.994     qc      0         |
   |          4      1    0.250   1.994     qc      0         |
   |         loc     2    0.000   1.605     pn      0         |
   | Augmentation charge Rinner = 1.405                       |
   | Partial core correction Rc = 1.405                       |
   | "2|1.6|2|1.4|6|7|8|30NH:21U:31UU:32LGG(qc=4.5)[]"        |
   |      Author: Chris J. Pickard, Cambridge University      |

 Doing a self consistent calculation for the test configuration

 Atomic calculation performed for Mg: 1s2 2s2 2p6 3s2

[...]

 AE eigenvalue nl 10 =      -46.06264936
 AE eigenvalue nl 20 =       -2.91364591
 AE eigenvalue nl 21 =       -1.71672732
 AE eigenvalue nl 30 =       -0.17593422
 PS eigenvalue nl 21 =       -1.71622098
 PS eigenvalue nl 30 =       -0.17592300

 Atomic calculation performed for Ca: 1s2 2s2 2p6 3s2 3p6 4s2

 Converged in 44 iterations to an ae energy of -18468.058 eV

   | Pseudopotential Report - Date of generation  5-05-2016   |
   | Element: Ca Ionic charge: 10.00 Level of theory: LDA     |
   |               Reference Electronic Structure             |
   |         Orbital         Occupation         Energy        |
   |            3s              2.000           -1.721        |
   |            3p              6.000           -1.028        |
   |            4s              2.000           -0.142        |
   |                 Pseudopotential Definition               |
   |        Beta     l      e      Rc     scheme   norm       |
   |          1      0   -1.721   2.005     qc      0         |
   |          2      0   -0.142   2.005     qc      0         |
   |          3      1   -1.028   2.005     qc      0         |
   |          4      1    0.250   2.005     qc      0         |
   |          5      2    0.000   2.005     qc      0         |
   |          6      2    1.000   2.005     qc      0         |
   |         loc     3    0.000   1.601     pn      0         |
   | Augmentation charge Rinner = 1.401                       |
   | Partial core correction Rc = 1.401                       |
   | "3|1.6|2.0|1.4|7|9|10|30U:40U:31:32U=0U=1.0"             |
   |      Author: Chris J. Pickard, Cambridge University      |

 Pseudo atomic calculation performed for O 2s2 2p4

 Converged in 30 iterations to a total energy of -432.5600 eV

 Pseudo atomic calculation performed for Mg 2p6 3s2

[...]

 Pseudo atomic calculation performed for Ca 3s2 3p6 4s2

[...]

 Calculation parallelised over 2 processes.
 Data is distributed by k-point(2-way)

 ************************************ Title ************************************
 MgO

 ***************************** General Parameters ******************************

 output verbosity                               : normal  (1)
 write checkpoint data to                       : test_9.check
 type of calculation                            : geometry optimization
 stress calculation                             : on
 density difference calculation                 : off
 electron localisation func (ELF) calculation   : off
 Hirshfeld analysis                             : off
 unlimited duration calculation
 timing information                             : on
 write final potential to formatted file        : off
 write final density to formatted file          : off
 write BibTeX reference list                    : on

 output         length unit                     : A
 output           mass unit                     : amu
 output           time unit                     : ps
 output         charge unit                     : e
 output         energy unit                     : eV
 output          force unit                     : eV/A
 output       velocity unit                     : A/ps
 output       pressure unit                     : GPa
 output     inv_length unit                     : 1/A
 output      frequency unit                     : cm-1
 output force constant unit                     : eV/A**2
 output         volume unit                     : A**3
 output   IR intensity unit                     : (D/A)**2/amu
 output         dipole unit                     : D
 output         efield unit                     : eV/A/e
 output        entropy unit                     : J/mol/K

 wavefunctions paging                           : none
 random number generator seed                   : randomised (125224633)
 data distribution                              : optimal for this architecture
 optimization strategy                          : maximize speed(+++)

 *********************** Exchange-Correlation Parameters ***********************

 using functional                               : Local Density Approximation
 Divergence correction                          : off
 DFT+D: Semi-empirical dispersion correction    : off

 ************************* Pseudopotential Parameters **************************

 pseudopotential representation                 : reciprocal space
 <beta|phi> representation                      : reciprocal space

 **************************** Basis Set Parameters *****************************

 plane wave basis set cut-off                   :   450.0000   eV
 size of standard grid                          :     2.0000
 size of   fine   gmax                          :    21.7358   1/A
 largest prime factor in FFT                    :          5
 finite basis set correction                    : automatic
 number of sample energies                      :          3
           sample  spacing                      :     5.0000   eV

 **************************** Electronic Parameters ****************************

 number of  electrons                           :  202.0
 net charge of system                           :  0.000
 net spin   of system                           :  0.000
 number of  up  spins                           :  101.0
 number of down spins                           :  101.0
 treating system as non-spin-polarized
 number of bands                                :        121

 ********************* Electronic Minimization Parameters **********************

 Method: Treating system as metallic with density mixing treatment of electrons,
         and number of  SD  steps               :          1
         and number of  CG  steps               :          4

 total energy / atom convergence tol.           : 0.1000E-06   eV
 eigen-energy convergence tolerance             : 0.2673E-07   eV
 max force / atom convergence tol.              : ignored
 convergence tolerance window                   :          3   cycles
 max. number of SCF cycles                      :         60
 number of fixed-spin iterations                :         10
 smearing scheme                                : Gaussian
 smearing width                                 : 0.2000       eV
 Fermi energy convergence tolerance             : 0.2673E-08   eV
 periodic dipole correction                     : NONE

 ************************** Density Mixing Parameters **************************

 density-mixing scheme                          : Pulay
 max. length of mixing history                  :         30
 charge density mixing amplitude                : 0.8000
 cut-off energy for mixing                      :  450.0       eV
 charge density mixing g-vector                 :  1.500       1/A

 *********************** Population Analysis Parameters ************************

 Population analysis with cutoff                :  3.000       A

 ********************** Geometry Optimization Parameters ***********************

 optimization method                            : BFGS
 variable cell method                           : fixed basis quality
 max. number of steps                           :         30
 estimated bulk modulus                         :  500.0       GPa
 estimated <frequency>                          :  1668.       cm-1
 geom line minimiser                            : on
 with line minimiser tolerance                  :     0.4000
 total energy convergence tolerance             : 0.2000E-04   eV/atom
        max ionic |force| tolerance             : 0.5000E-01   eV/A
 max ionic |displacement| tolerance             : 0.1000E-02   A
   max |stress component| tolerance             : 0.1000       GPa
 convergence tolerance window                   :          2   steps
 backup results every                           :          5   steps

                                      Unit Cell
        Real Lattice(A)                      Reciprocal Lattice(1/A)
   8.4000000   0.0000000   0.0000000        0.7479983   0.0000000   0.0000000
   0.0000000   8.4000000   0.0000000        0.0000000   0.7479983   0.0000000
   0.0000000   0.0000000   8.4000000        0.0000000   0.0000000   0.7479983

                       Lattice parameters(A)       Cell Angles
                    a =    8.400000          alpha =   90.000000
                    b =    8.400000          beta  =   90.000000
                    c =    8.400000          gamma =   90.000000

[...]
 *                        Cartesian components (eV/A)                         *
 *                   x                    y                    z              *
 * O         1      2.15565              2.07948              0.72956         *
 * O         2     -1.80673              1.86928              1.77371         *
 * O         3      0.04104              0.00000              0.56736         *
 * O         4      2.15565             -2.07948              0.72956         *
 * O         5     -1.80673             -1.86928              1.77371         *
 * O         6      0.36753              0.77388             -0.43522         *
 * O         7      0.91863              0.00000             -0.41899         *
 * O         8     -0.66613              0.00000             -0.44210         *
 * O         9      0.36753             -0.77388             -0.43522         *
 * O        10      1.27673              1.18441             -1.37387         *
 * O        11     -0.93975              1.02818             -2.48039         *
 * O        12      0.06066              0.00000             -1.07613         *
 * O        13      1.27673             -1.18441             -1.37387         *
 * O        14     -0.93975             -1.02818             -2.48039         *
 * Mg        1      0.10938              1.82784              1.83803         *
 * Mg        2      1.88517              0.00000              1.72966         *
 * Mg        3     -1.76591              0.00000              1.97156         *
 * Mg        4      0.10938             -1.82784              1.83803         *
 * Mg        5     -1.92699              1.66022             -0.15233         *
 * Mg        6     -1.92699             -1.66022             -0.15233         *
 * Ca        1      0.29840              0.56339             -0.25178         *
 * Ca        2      0.10089              0.00000             -0.19711         *
 * Ca        3      0.29840             -0.56339             -0.25178         *
 * Ca        4      0.10596              0.47165             -0.35335         *
 * Ca        5      0.53960              0.00000             -0.21266         *
 * Ca        6     -0.39431              0.00000             -0.51033         *
 * Ca        7      0.10596             -0.47165             -0.35335         *

 ***************** Stress Tensor *****************
 *          Cartesian components (GPa)           *
 *             x             y             z     *
 *  x     -0.293871      0.000000     -0.082505  *
 *  y      0.000000     -0.417553      0.000000  *
 *  z     -0.082505      0.000000      0.289632  *
 *  Pressure:    0.1406                          *

 *********** Constrained Stress Tensor ***********
 *          Cartesian components (GPa)           *
 *             x             y             z     *
 *  x     -0.140440      0.000000     -0.000000  *
 *  y      0.000000     -0.140440      0.000000  *
 *  z     -0.000000      0.000000     -0.140440  *
 *  Pressure:    0.1404                          *

 +------------+-------------+-------------+-----------------+ <-- min BFGS
 |    Step    |   lambda    |   F.delta   |    enthalpy     | <-- min BFGS
 +------------+-------------+-------------+-----------------+ <-- min BFGS
 |  previous  |    0.000000 |    0.012403 |   -19360.736175 | <-- min BFGS
 | trial step |    1.000000 |    0.012169 |   -19361.070375 | <-- min BFGS
 +------------+-------------+-------------+-----------------+ <-- min BFGS

 BFGS: finished iteration    30 with enthalpy= -1.93610704E+004 eV

 +-----------+-----------------+-----------------+------------+-----+ <-- BFGS
 | Parameter |      value      |    tolerance    |    units   | OK? | <-- BFGS
 +-----------+-----------------+-----------------+------------+-----+ <-- BFGS
 |  dE/ion   |   1.237776E-002 |   2.000000E-005 |         eV | No  | <-- BFGS
 |  |F|max   |   3.147145E+000 |   5.000000E-002 |       eV/A | No  | <-- BFGS
 |  |dR|max  |   9.192764E-003 |   1.000000E-003 |          A | No  | <-- BFGS
 |   Smax    |   1.404623E-001 |   1.000000E-001 |        GPa | No  | <-- BFGS
 +-----------+-----------------+-----------------+------------+-----+ <-- BFGS

 BFGS : WARNING - Geometry optimization failed to converge after         30 steps

 BFGS : Final Configuration:

                                      Unit Cell
        Real Lattice(A)              Reciprocal Lattice(1/A)
   7.0939520   0.0000000   0.0000000        0.8857102   0.0000000  -0.0000000
   0.0000000   7.0939520   0.0000000        0.0000000   0.8857102   0.0000000
   0.0000000   0.0000000   7.0939520       -0.0000000   0.0000000   0.8857102

                       Lattice parameters(A)       Cell Angles
                    a =    7.093952          alpha =   90.000000
                    b =    7.093952          beta  =   90.000000
                    c =    7.093952          gamma =   90.000000

                Current cell volume =  356.997137 A**3

                                     Cell Contents

            x  Element    Atom        Fractional coordinates of atoms  x
            x            Number           u          v          w      x
            x  O            1         0.025321   0.024322   0.013587   x
            x  O            2         0.644645   0.023394   0.020618   x
            x  O            3         0.333134   0.333333   0.012335   x
            x  O            4         0.025321   0.642345   0.013587   x
            x  O            5         0.644645   0.643272   0.020618   x
            x  O            6         0.334088   0.015819   0.332603   x
            x  O            7         0.017194   0.333333   0.332861   x
            x  O            8         0.652606   0.333333   0.332292   x
            x  O            9         0.334088   0.650847   0.332603   x
            x  O           10         0.020117   0.019134   0.645593   x
            x  O           11         0.650370   0.017791   0.639358   x
            x  O           12         0.333314   0.333333   0.648107   x
            x  O           13         0.020117   0.647532   0.645593   x
            x  O           14         0.650370   0.648876   0.639358   x
            x  Mg           1         0.334263   0.028487   0.034316   x
            x  Mg           2         0.028654   0.333333   0.032955   x
            x  Mg           3         0.638429   0.333333   0.035718   x
            x  Mg           4         0.334263   0.638180   0.034316   x
            x  Mg           5         0.631934   0.026975   0.331873   x
            x  Mg           6         0.631934   0.639691   0.331873   x
            x  Ca           1         0.021357   0.026215   0.330813   x
            x  Ca           2         0.336289   0.333333   0.327433   x
            x  Ca           3         0.021357   0.640452   0.330813   x
            x  Ca           4         0.334440   0.024419   0.645168   x
            x  Ca           5         0.024684   0.333333   0.647178   x
            x  Ca           6         0.642624   0.333333   0.643262   x
            x  Ca           7         0.334440   0.642247   0.645168   x

 BFGS : Final Enthalpy     = -1.93610704E+004 eV
 BFGS : Final <frequency>  unchanged from initial value
 BFGS : Final bulk modulus unchanged from initial value

  *** There were at least     1 warnings during this run ***
  *** => please check the whole of this file carefully!  ***

 ***************************** Symmetrised Forces *****************************
 *                        Cartesian components (eV/A)                         *
 *                   x                    y                    z              *
 * O         1      2.15565              2.07948              0.72956         *
 * O         2     -1.80673              1.86928              1.77371         *
 * O         3      0.04104              0.00000              0.56736         *
 * O         4      2.15565             -2.07948              0.72956         *
 * O         5     -1.80673             -1.86928              1.77371         *
 * O         6      0.36753              0.77388             -0.43522         *
 * O         7      0.91863              0.00000             -0.41899         *
 * O         8     -0.66613              0.00000             -0.44210         *
 * O         9      0.36753             -0.77388             -0.43522         *
 * O        10      1.27673              1.18441             -1.37387         *
 * O        11     -0.93975              1.02818             -2.48039         *
 * O        12      0.06066              0.00000             -1.07613         *
 * O        13      1.27673             -1.18441             -1.37387         *
 * O        14     -0.93975             -1.02818             -2.48039         *
 * Mg        1      0.10938              1.82784              1.83803         *
 * Mg        2      1.88517              0.00000              1.72966         *
 * Mg        3     -1.76591              0.00000              1.97156         *
 * Mg        4      0.10938             -1.82784              1.83803         *
 * Mg        5     -1.92699              1.66022             -0.15233         *
 * Mg        6     -1.92699             -1.66022             -0.15233         *
 * Ca        1      0.29840              0.56339             -0.25178         *
 * Ca        2      0.10089              0.00000             -0.19711         *
 * Ca        3      0.29840             -0.56339             -0.25178         *
 * Ca        4      0.10596              0.47165             -0.35335         *
 * Ca        5      0.53960              0.00000             -0.21266         *
 * Ca        6     -0.39431              0.00000             -0.51033         *
 * Ca        7      0.10596             -0.47165             -0.35335         *

 *********** Symmetrised Stress Tensor ***********
 *          Cartesian components (GPa)           *
 *             x             y             z     *
 *  x     -0.140462      0.000000     -0.000000  *
 *  y      0.000000     -0.140462      0.000000  *
 *  z     -0.000000      0.000000     -0.140462  *
 *  Pressure:    0.1405                          *

 Pseudo atomic calculation performed for O 2s2 2p4

[...]

 Pseudo atomic calculation performed for Mg 2p6 3s2

[...]

 Pseudo atomic calculation performed for Ca 3s2 3p6 4s2

 Converged in 24 iterations to a total energy of -1000.4575 eV

Charge spilling parameter for spin component 1 = 0.33%

     Atomic Populations (Mulliken)
Species   Ion     s      p      d      f     Total  Charge (e)
  O        1     1.92   4.78   0.00   0.00   6.71    -0.71
  O        2     1.93   4.79   0.00   0.00   6.72    -0.72
  O        3     1.87   5.07   0.00   0.00   6.93    -0.93
  O        4     1.92   4.78   0.00   0.00   6.71    -0.71
  O        5     1.93   4.79   0.00   0.00   6.72    -0.72
  O        6     1.86   5.03   0.00   0.00   6.89    -0.89
  O        7     1.86   5.00   0.00   0.00   6.86    -0.86
  O        8     1.86   5.05   0.00   0.00   6.91    -0.91
  O        9     1.86   5.03   0.00   0.00   6.89    -0.89
  O       10     1.92   4.76   0.00   0.00   6.67    -0.67
  O       11     1.92   4.77   0.00   0.00   6.69    -0.69
  O       12     1.86   4.97   0.00   0.00   6.83    -0.83
  O       13     1.92   4.76   0.00   0.00   6.67    -0.67
  O       14     1.92   4.77   0.00   0.00   6.69    -0.69
  Mg       1     0.55   6.75   0.00   0.00   7.30     0.70
  Mg       2     0.54   6.78   0.00   0.00   7.32     0.68
  Mg       3     0.56   6.72   0.00   0.00   7.28     0.72
  Mg       4     0.55   6.75   0.00   0.00   7.30     0.70
  Mg       5     0.53   6.78   0.00   0.00   7.31     0.69
  Mg       6     0.53   6.78   0.00   0.00   7.31     0.69
  Ca       1     2.16   5.97   0.90   0.00   9.03     0.97
  Ca       2     2.21   5.99   0.87   0.00   9.07     0.93
  Ca       3     2.16   5.97   0.90   0.00   9.03     0.97
  Ca       4     2.17   5.97   0.90   0.00   9.04     0.96
  Ca       5     2.18   5.97   0.90   0.00   9.05     0.95
  Ca       6     2.17   5.97   0.89   0.00   9.03     0.97
  Ca       7     2.17   5.97   0.90   0.00   9.04     0.96

            Bond              Population      Length (A)
         O 8  -- Mg 3              0.28        2.10628
         O 9  -- Mg 6              0.28        2.11440
         O 6  -- Mg 5              0.28        2.11440
         O 9  -- Mg 4              0.28        2.11794
         O 6  -- Mg 1              0.28        2.11794
         O 7  -- Mg 2              0.29        2.12907
         O 3  -- Mg 2              0.27        2.16491
         O 3  -- Mg 1              0.28        2.16820
         O 3  -- Mg 4              0.28        2.16820
         O 3  -- Mg 3              0.28        2.17209
         O 8  -- Mg 5              0.28        2.17823
         O 8  -- Mg 6              0.28        2.17823
         O 7  -- Ca 1              0.21        2.17893
         O 7  -- Ca 3              0.21        2.17893
         O 14 -- Mg 6              0.44        2.18617
         O 11 -- Mg 5              0.44        2.18617
         O 12 -- Ca 5              0.21        2.18942
         O 12 -- Ca 4              0.21        2.19153
         O 12 -- Ca 7              0.21        2.19153
         O 12 -- Ca 6              0.21        2.19450
         O 1  -- Mg 2              0.41        2.19654
         O 4  -- Mg 2              0.41        2.19654
         O 4  -- Mg 4              0.42        2.19675
         O 1  -- Mg 1              0.42        2.19675
         O 2  -- Mg 3              0.40        2.20174
         O 5  -- Mg 3              0.40        2.20174
         O 5  -- Mg 4              0.39        2.20427
         O 2  -- Mg 1              0.39        2.20427
         O 8  -- Ca 6              0.24        2.20714
         O 5  -- Mg 6              0.39        2.21001
         O 2  -- Mg 5              0.39        2.21001
         O 9  -- Ca 7              0.24        2.21816
         O 6  -- Ca 4              0.24        2.21816
         O 9  -- Ca 3              0.24        2.21976
         O 6  -- Ca 1              0.24        2.21976
         O 10 -- Ca 5              0.21        2.22918
         O 13 -- Ca 5              0.21        2.22918
         O 13 -- Ca 7              0.23        2.23010
         O 10 -- Ca 4              0.23        2.23010
         O 7  -- Ca 5              0.24        2.23038
         O 10 -- Ca 1              0.24        2.23361
         O 13 -- Ca 3              0.24        2.23361
         O 3  -- Ca 2              0.11        2.23540
         O 11 -- Ca 6              0.21        2.23929
         O 14 -- Ca 6              0.21        2.23929
         O 14 -- Ca 7              0.20        2.24206
         O 11 -- Ca 4              0.20        2.24206
         O 8  -- Ca 2              0.11        2.24420
         O 4  -- Ca 3              0.19        2.25060
         O 1  -- Ca 1              0.19        2.25060
         O 6  -- Ca 2              0.12        2.25278
         O 9  -- Ca 2              0.12        2.25278
         O 7  -- Ca 2              0.11        2.26397
         O 12 -- Ca 2              0.11        2.27495
         O 3  -- O 12             -0.08        2.58382
         O 7  -- O 8              -0.08        2.58637
         O 6  -- O 9              -0.08        2.58909
         O 4  -- O 13             -0.03        2.61106
         O 1  -- O 10             -0.03        2.61106
         O 11 -- O 14             -0.03        2.61706
[...]
         Ca 5 -- Ca 6             -0.16        2.71046
         Ca 4 -- Ca 7             -0.18        2.71111
         Ca 1 -- Ca 3             -0.20        2.73658
         Mg 2 -- Ca 5             -0.32        2.73683
         Mg 5 -- Mg 6             -0.47        2.74737
         Mg 4 -- Ca 7             -0.34        2.76075
         Mg 1 -- Ca 4             -0.34        2.76075
         Mg 6 -- Ca 3             -0.36        2.76256
         Mg 5 -- Ca 1             -0.36        2.76256
         Mg 2 -- Mg 3             -0.53        2.76831
         Mg 1 -- Mg 4             -0.53        2.76882
         Mg 3 -- Ca 6             -0.37        2.78423
         Mg 3 -- Ca 2             -0.07        2.97934
         Mg 4 -- Mg 6             -0.29        2.98579
         Mg 1 -- Mg 5             -0.29        2.98579

Writing model to test_9.check

Writing analysis data to test_9.castep_bin

 A BibTeX formatted list of references used in this run has been written to
 test_9.bib

Initialisation time =     28.24 s
Calculation time    =  37376.91 s
Finalisation time   =      2.68 s
Total time          =  37407.83 s

Overall parallel efficiency rating: Excellent (99%)

Data was distributed by:-
k-point (2-way); efficiency rating: Ideal (100%)