<<<<<<< HEAD
 Run started: Wed, 27 Apr 2016 12:39:39 +0100

 Atomic calculation performed for Mg: 1s2 2s2 2p6 3s2

 Converged in 47 iterations to an ae energy of -5427.407 eV

   | Pseudopotential Report - Date of generation 27-04-2016   |
   | Element: Mg Ionic charge: 10.00 Level of theory: LDA     |
   | Atomic Solver: Koelling-Harmon                           |
   |               Reference Electronic Structure             |
   |         Orbital         Occupation         Energy        |
   |            2s              2.000           -2.914        |
   |            2p              6.000           -1.717        |
   |            3s              2.000           -0.176        |
   |                 Pseudopotential Definition               |
   |        Beta     l      e      Rc     scheme   norm       |
   |          1      0   -2.914   1.804     qc      0         |
   |          2      0   -0.176   1.804     qc      0         |
   |          3      0    0.250   1.804     qc      0         |
   |          4      1   -1.717   1.804     qc      0         |
   |          5      1    0.250   1.804     qc      0         |
   |          6      2    0.000   1.804     qc      0         |
   |          7      2    0.250   1.804     qc      0         |
   |         loc     3    0.000   1.804     pn      0         |
   | Augmentation charge Rinner = 1.261                       |
   | Partial core correction Rc = 1.261                       |
   | "3|1.8|7|8|9|20U:30:21:32"                               |
   |      Author: Chris J. Pickard, Cambridge University      |

 Pseudo atomic calculation performed for Mg 2s2 2p6 3s2

 Converged in 19 iterations to a total energy of -1684.3182 eV

 Calculation not parallelised.

 ************************************ Title ************************************
 MgO

 ***************************** General Parameters ******************************

 output verbosity                               : normal  (1)
 write checkpoint data to                       : ../8.check
 type of calculation                            : single point energy
 stress calculation                             : on
 density difference calculation                 : off
 electron localisation func (ELF) calculation   : off
 Hirshfeld analysis                             : off
 unlimited duration calculation
 timing information                             : on
 write final potential to formatted file        : off
 write final density to formatted file          : off
 write BibTeX reference list                    : on
 write OTFG pseudopotential files               : on
 checkpoint writing                             : both castep_bin and check files

 output         length unit                     : A
 output           mass unit                     : amu
 output           time unit                     : ps
 output         charge unit                     : e
 output           spin unit                     : hbar/2
 output         energy unit                     : eV
 output          force unit                     : eV/A
 output       velocity unit                     : A/ps
 output       pressure unit                     : GPa
 output     inv_length unit                     : 1/A
 output      frequency unit                     : cm-1
 output force constant unit                     : eV/A**2
 output         volume unit                     : A**3
 output   IR intensity unit                     : (D/A)**2/amu
 output         dipole unit                     : D
 output         efield unit                     : eV/A/e
 output        entropy unit                     : J/mol/K

 wavefunctions paging                           : none
 random number generator seed                   : randomised (123940224)
 data distribution                              : optimal for this architecture
 optimization strategy                          : maximize speed(+++)

 *********************** Exchange-Correlation Parameters ***********************

 using functional                               : Local Density Approximation
 relativistic treatment                         : Koelling-Harmon
 DFT+D: Semi-empirical dispersion correction    : off

 ************************* Pseudopotential Parameters **************************

 pseudopotential representation                 : reciprocal space
 <beta|phi> representation                      : reciprocal space
 spin-orbit coupling                            : off

 **************************** Basis Set Parameters *****************************

 plane wave basis set cut-off                   :   280.0000   eV
 size of standard grid                          :     2.0000
 size of   fine   gmax                          :    17.1454   1/A
 finite basis set correction                    : automatic
 number of sample energies                      :          3
           sample  spacing                      :     5.0000   eV

 **************************** Electronic Parameters ****************************

 number of  electrons                           :  80.00
 net charge of system                           :  0.000
 treating system as non-spin-polarized
 number of bands                                :         48

 ********************* Electronic Minimization Parameters **********************

 Method: Treating system as metallic with density mixing treatment of electrons,
         and number of  SD  steps               :          1
         and number of  CG  steps               :          4

 total energy / atom convergence tol.           : 0.1000E-06   eV
 eigen-energy convergence tolerance             : 0.2000E-07   eV
 max force / atom convergence tol.              : ignored
 convergence tolerance window                   :          3   cycles
 max. number of SCF cycles                      :         60
 number of fixed-spin iterations                :         10
 smearing scheme                                : Gaussian
 smearing width                                 : 0.2000       eV
 Fermi energy convergence tolerance             : 0.2721E-13   eV
 periodic dipole correction                     : NONE

 ************************** Density Mixing Parameters **************************

 density-mixing scheme                          : Pulay
 max. length of mixing history                  :         30
 charge density mixing amplitude                : 0.8000
 cut-off energy for mixing                      :  280.0       eV

 *********************** Population Analysis Parameters ************************

 Population analysis with cutoff                :  3.000       A

                                      Unit Cell
        Real Lattice(A)                      Reciprocal Lattice(1/A)
   4.2000000   0.0000000   0.0000000        1.4959965   0.0000000   0.0000000
   0.0000000   4.2000000   0.0000000        0.0000000   1.4959965   0.0000000
   0.0000000   0.0000000   4.2000000        0.0000000   0.0000000   1.4959965

                       Lattice parameters(A)       Cell Angles
                    a =    4.200000          alpha =   90.000000
                    b =    4.200000          beta  =   90.000000
                    c =    4.200000          gamma =   90.000000

                       Current cell volume =   74.088000       A**3

                                     Cell Contents
                         Total number of ions in cell =    8
                      Total number of species in cell =    1
                        Max number of any one species =    8

            x  Element    Atom        Fractional coordinates of atoms  x
            x            Number           u          v          w      x
            x  Mg           1         0.000000   0.000000   0.000000   x
            x  Mg           2         0.500000   0.000000   0.000000   x
            x  Mg           3         0.000000   0.500000   0.000000   x
            x  Mg           4         0.500000   0.500000   0.000000   x
            x  Mg           5         0.000000   0.000000   0.500000   x
            x  Mg           6         0.500000   0.000000   0.500000   x
            x  Mg           7         0.000000   0.500000   0.500000   x
            x  Mg           8         0.500000   0.500000   0.500000   x

                         No user defined ionic velocities

                                   Details of Species

                               Mass of species in AMU
                                    Mg   24.3050000

                          Electric Quadrupole Moment (Barn)
                                    Mg    0.1994000 Isotope 25

                          Files used for pseudopotentials:
                                    Mg 3|1.8|7|8|9|20U:30:21:32

                              k-Points For BZ Sampling
                       MP grid size for SCF calculation is  3  3  3
                            with an offset of   0.000  0.000  0.000
                       Number of kpoints used =             4

                               Symmetry and Constraints

                      Cell is a supercell containing 8 primitive cells
                      Maximum deviation from symmetry = 0.940008E-15     ANG

                      Number of symmetry operations   =         384
                      Number of ionic constraints     =           3
                      Point group of crystal =    32: Oh, m-3m, 4/m -3 2/m
                      Space group of crystal =   221: Pm-3m, -P 4 2 3

             Set iprint > 1 for details on symmetry rotations/translations

                         Centre of mass is constrained
             Set iprint > 1 for details of linear ionic constraints

                         Number of cell constraints= 5
                         Cell constraints are:  1 1 1 0 0 0

                         External pressure/stress (GPa)
                          0.00000   0.00000   0.00000
                                    0.00000   0.00000
                                              0.00000

Final energy, E             =  -13460.19785140     eV
Final free energy (E-TS)    =  -13460.20931538     eV
(energies not corrected for finite basis set)

NB est. 0K energy (E-0.5TS)      =  -13460.20358339     eV

Calculating total energy with cut-off of  275.000eV.
------------------------------------------------------------------------ <-- SCF
SCF loop      Energy           Fermi           Energy gain       Timer   <-- SCF
                               energy          per atom          (sec)   <-- SCF
------------------------------------------------------------------------ <-- SCF
Initial  -1.34601979E+004  0.00000000E+000                         8.08  <-- SCF
      1  -1.34604848E+004  1.09196728E+001   3.58703319E-002       8.40  <-- SCF
      2  -1.34604853E+004  1.09196728E+001   6.25178584E-005       8.76  <-- SCF
      3  -1.34604850E+004  1.09185712E+001  -4.30390496E-005       9.17  <-- SCF
      4  -1.34604850E+004  1.09188634E+001   8.18877386E-007       9.57  <-- SCF
      5  -1.34604850E+004  1.09187731E+001  -1.58576916E-007       9.85  <-- SCF
      6  -1.34604850E+004  1.09187668E+001   1.53924757E-009      10.12  <-- SCF
      7  -1.34604850E+004  1.09187659E+001   4.06805286E-010      10.40  <-- SCF
------------------------------------------------------------------------ <-- SCF

[...]

Calculating total energy with cut-off of  280.000eV.
------------------------------------------------------------------------ <-- SCF
SCF loop      Energy           Fermi           Energy gain       Timer   <-- SCF
                               energy          per atom          (sec)   <-- SCF
------------------------------------------------------------------------ <-- SCF
Initial  -1.34604735E+004  0.00000000E+000                        10.54  <-- SCF
      1  -1.34606459E+004  1.09187671E+001   2.15501610E-002      10.83  <-- SCF
      2  -1.34606462E+004  1.09187671E+001   3.88030542E-005      11.17  <-- SCF
      3  -1.34606461E+004  1.09180860E+001  -1.70832559E-005      11.59  <-- SCF
      4  -1.34606461E+004  1.09182770E+001   3.33444604E-007      11.93  <-- SCF
      5  -1.34606461E+004  1.09182156E+001  -6.45047399E-008      12.21  <-- SCF
      6  -1.34606461E+004  1.09182128E+001   8.21537862E-010      12.49  <-- SCF
------------------------------------------------------------------------ <-- SCF

Final energy, E             =  -13460.63462782     eV
Final free energy (E-TS)    =  -13460.64608976     eV
(energies not corrected for finite basis set)

NB est. 0K energy (E-0.5TS)      =  -13460.64035879     eV

 For future reference: finite basis dEtot/dlog(Ecut) =     -10.932590eV
 Total energy corrected for finite basis set =  -13460.658434 eV

 ***************** Symmetrised Forces *****************
 *            Cartesian components (eV/A)             *
 *                   x            y            z      *
 * Mg        1      0.00000      0.00000      0.00000 *
 * Mg        2      0.00000      0.00000      0.00000 *
 * Mg        3      0.00000      0.00000      0.00000 *
 * Mg        4      0.00000      0.00000      0.00000 *
 * Mg        5      0.00000      0.00000      0.00000 *
 * Mg        6      0.00000      0.00000      0.00000 *
 * Mg        7      0.00000      0.00000      0.00000 *
 * Mg        8      0.00000      0.00000      0.00000 *

 *********** Symmetrised Stress Tensor ***********
 *          Cartesian components (GPa)           *
 *             x             y             z     *
 *  x   -176.335543      0.000000      0.000000  *
 *  y      0.000000   -176.335543      0.000000  *
 *  z      0.000000      0.000000   -176.335543  *
 *  Pressure:  176.3355                          *

 Pseudo atomic calculation performed for Mg 2s2 2p6 3s2

 Converged in 19 iterations to a total energy of -1684.3182 eV

Charge spilling parameter for spin component 1 = 0.80%

     Atomic Populations (Mulliken)
Species   Ion     s      p      d      f     Total  Charge (e)
  Mg       1     2.06   7.94   0.00   0.00  10.00     0.00
  Mg       2     2.06   7.94   0.00   0.00  10.00     0.00
  Mg       3     2.06   7.94   0.00   0.00  10.00     0.00
  Mg       4     2.06   7.94   0.00   0.00  10.00     0.00
  Mg       5     2.06   7.94   0.00   0.00  10.00     0.00
  Mg       6     2.06   7.94   0.00   0.00  10.00     0.00
  Mg       7     2.06   7.94   0.00   0.00  10.00     0.00
  Mg       8     2.06   7.94   0.00   0.00  10.00     0.00

            Bond              Population      Length (A)
         Mg 7 -- Mg 8             -4.37        2.10000
         Mg 6 -- Mg 8             -4.37        2.10000
         Mg 5 -- Mg 7             -4.37        2.10000
         Mg 5 -- Mg 6             -4.37        2.10000
         Mg 4 -- Mg 8             -4.37        2.10000
         Mg 3 -- Mg 7             -4.37        2.10000
         Mg 3 -- Mg 4             -4.37        2.10000
         Mg 2 -- Mg 6             -4.37        2.10000
         Mg 2 -- Mg 4             -4.37        2.10000
         Mg 1 -- Mg 5             -4.37        2.10000
         Mg 1 -- Mg 3             -4.37        2.10000
         Mg 1 -- Mg 2             -4.37        2.10000
         Mg 6 -- Mg 7              2.65        2.96985
         Mg 5 -- Mg 8              2.65        2.96985
         Mg 4 -- Mg 7              2.65        2.96985
         Mg 4 -- Mg 6              2.65        2.96985
         Mg 3 -- Mg 8              2.65        2.96985
         Mg 3 -- Mg 5              2.65        2.96985
         Mg 2 -- Mg 8              2.65        2.96985
         Mg 2 -- Mg 5              2.65        2.96985
         Mg 2 -- Mg 3              2.65        2.96985
         Mg 1 -- Mg 7              2.65        2.96985
         Mg 1 -- Mg 6              2.65        2.96985
         Mg 1 -- Mg 4              2.65        2.96985

Writing analysis data to ../8.castep_bin

Writing model to ../8.check

 A BibTeX formatted list of references used in this run has been written to
 ../8.bib

Initialisation time =      4.08 s
Calculation time    =     10.41 s
Finalisation time   =      0.38 s
Total time          =     14.87 s
 Run started: Fri, 29 Apr 2016 13:05:58 +0100
>>>>>>> test