<<<<<<< HEAD
 Run started: Wed, 27 Apr 2016 12:35:23 +0100
 Run started: Fri, 29 Apr 2016 13:05:54 +0100
>>>>>>> test

 Atomic calculation performed for Ca: 1s2 2s2 2p6 3s2 3p6 4s2

 Converged in 44 iterations to an ae energy of -18468.059 eV

<<<<<<< HEAD
   | Pseudopotential Report - Date of generation 27-04-2016   |
   | Element: Ca Ionic charge: 10.00 Level of theory: LDA     |
   | Atomic Solver: Koelling-Harmon                           |
   |               Reference Electronic Structure             |
   |         Orbital         Occupation         Energy        |
   |            3s              2.000           -1.721        |
   |            3p              6.000           -1.028        |
   |            4s              2.000           -0.142        |
   |                 Pseudopotential Definition               |
   |        Beta     l      e      Rc     scheme   norm       |
   |          1      0   -1.721   2.005     qc      0         |
   |          2      0   -0.142   2.005     qc      0         |
   |          3      0    0.250   2.005     qc      0         |
   |          4      1   -1.028   2.005     qc      0         |
   |          5      1    0.250   2.005     qc      0         |
   |          6      2    0.000   2.005     qc      0         |
   |          7      2    0.250   2.005     qc      0         |
   |         loc     3    0.000   2.005     pn      0         |
   | Augmentation charge Rinner = 1.401                       |
   | Partial core correction Rc = 1.401                       |
   | "3|2.0|7|8|9|30U:40:31:32"                               |
   |      Author: Chris J. Pickard, Cambridge University      |

 Pseudo atomic calculation performed for Ca 3s2 3p6 4s2

 Converged in 24 iterations to a total energy of -1001.5365 eV

 Calculation not parallelised.

 ************************************ Title ************************************
 MgO

 ***************************** General Parameters ******************************

 output verbosity                               : normal  (1)
 write checkpoint data to                       : ../0.check
 type of calculation                            : single point energy
 stress calculation                             : on
 density difference calculation                 : off
 electron localisation func (ELF) calculation   : off
 Hirshfeld analysis                             : off
 unlimited duration calculation
 timing information                             : on
 write final potential to formatted file        : off
 write final density to formatted file          : off
 write BibTeX reference list                    : on
 write OTFG pseudopotential files               : on
 checkpoint writing                             : both castep_bin and check files

 output         length unit                     : A
 output           mass unit                     : amu
 output           time unit                     : ps
 output         charge unit                     : e
 output           spin unit                     : hbar/2
 output         energy unit                     : eV
 output          force unit                     : eV/A
 output       velocity unit                     : A/ps
 output       pressure unit                     : GPa
 output     inv_length unit                     : 1/A
 output      frequency unit                     : cm-1
 output force constant unit                     : eV/A**2
 output         volume unit                     : A**3
 output   IR intensity unit                     : (D/A)**2/amu
 output         dipole unit                     : D
 output         efield unit                     : eV/A/e
 output        entropy unit                     : J/mol/K

 wavefunctions paging                           : none
 random number generator seed                   : randomised (123523743)
 data distribution                              : optimal for this architecture
 optimization strategy                          : maximize speed(+++)

 *********************** Exchange-Correlation Parameters ***********************

 using functional                               : Local Density Approximation
 relativistic treatment                         : Koelling-Harmon
 DFT+D: Semi-empirical dispersion correction    : off

 ************************* Pseudopotential Parameters **************************

 pseudopotential representation                 : reciprocal space
 <beta|phi> representation                      : reciprocal space
 spin-orbit coupling                            : off

 **************************** Basis Set Parameters *****************************

 plane wave basis set cut-off                   :   280.0000   eV
 size of standard grid                          :     2.0000
 size of   fine   gmax                          :    17.1454   1/A
 finite basis set correction                    : automatic
 number of sample energies                      :          3
           sample  spacing                      :     5.0000   eV

 **************************** Electronic Parameters ****************************

 number of  electrons                           :  80.00
 net charge of system                           :  0.000
 treating system as non-spin-polarized
 number of bands                                :         48

 ********************* Electronic Minimization Parameters **********************

 Method: Treating system as metallic with density mixing treatment of electrons,
         and number of  SD  steps               :          1
         and number of  CG  steps               :          4

 total energy / atom convergence tol.           : 0.1000E-06   eV
 eigen-energy convergence tolerance             : 0.2000E-07   eV
 max force / atom convergence tol.              : ignored
 convergence tolerance window                   :          3   cycles
 max. number of SCF cycles                      :         60
 number of fixed-spin iterations                :         10
 smearing scheme                                : Gaussian
 smearing width                                 : 0.2000       eV
 Fermi energy convergence tolerance             : 0.2721E-13   eV
 periodic dipole correction                     : NONE

 ************************** Density Mixing Parameters **************************

 density-mixing scheme                          : Pulay
 max. length of mixing history                  :         30
 charge density mixing amplitude                : 0.8000
 cut-off energy for mixing                      :  280.0       eV

 *********************** Population Analysis Parameters ************************

 Population analysis with cutoff                :  3.000       A

                                      Unit Cell
        Real Lattice(A)                      Reciprocal Lattice(1/A)
   4.2000000   0.0000000   0.0000000        1.4959965   0.0000000   0.0000000
   0.0000000   4.2000000   0.0000000        0.0000000   1.4959965   0.0000000
   0.0000000   0.0000000   4.2000000        0.0000000   0.0000000   1.4959965

                       Lattice parameters(A)       Cell Angles
                    a =    4.200000          alpha =   90.000000
                    b =    4.200000          beta  =   90.000000
                    c =    4.200000          gamma =   90.000000

                       Current cell volume =   74.088000       A**3

                                     Cell Contents
                         Total number of ions in cell =    8
                      Total number of species in cell =    1
                        Max number of any one species =    8

            x  Element    Atom        Fractional coordinates of atoms  x
            x            Number           u          v          w      x
            x  Ca           1         0.000000   0.000000   0.000000   x
            x  Ca           2         0.500000   0.000000   0.000000   x
            x  Ca           3         0.000000   0.500000   0.000000   x
            x  Ca           4         0.500000   0.500000   0.000000   x
            x  Ca           5         0.000000   0.000000   0.500000   x
            x  Ca           6         0.500000   0.000000   0.500000   x
            x  Ca           7         0.000000   0.500000   0.500000   x
            x  Ca           8         0.500000   0.500000   0.500000   x

                         No user defined ionic velocities

                                   Details of Species

                               Mass of species in AMU
                                    Ca   40.0780000

                          Electric Quadrupole Moment (Barn)
                                    Ca   -0.0408000 Isotope 43

                          Files used for pseudopotentials:
                                    Ca 3|2.0|7|8|9|30U:40:31:32

                              k-Points For BZ Sampling
                       MP grid size for SCF calculation is  3  3  3
                            with an offset of   0.000  0.000  0.000
                       Number of kpoints used =             4

                               Symmetry and Constraints

                      Cell is a supercell containing 8 primitive cells
                      Maximum deviation from symmetry = 0.940008E-15     ANG

                      Number of symmetry operations   =         384
                      Number of ionic constraints     =           3
                      Point group of crystal =    32: Oh, m-3m, 4/m -3 2/m
                      Space group of crystal =   221: Pm-3m, -P 4 2 3

             Set iprint > 1 for details on symmetry rotations/translations

                         Centre of mass is constrained
             Set iprint > 1 for details of linear ionic constraints

                         Number of cell constraints= 5
                         Cell constraints are:  1 1 1 0 0 0

                         External pressure/stress (GPa)
                          0.00000   0.00000   0.00000
                                    0.00000   0.00000
                                              0.00000

Final energy, E             =  -7983.099650442     eV
Final free energy (E-TS)    =  -7983.197608280     eV
(energies not corrected for finite basis set)

NB est. 0K energy (E-0.5TS)      =  -7983.148629361     eV

Calculating total energy with cut-off of  275.000eV.
------------------------------------------------------------------------ <-- SCF
SCF loop      Energy           Fermi           Energy gain       Timer   <-- SCF
                               energy          per atom          (sec)   <-- SCF
------------------------------------------------------------------------ <-- SCF
Initial  -7.98309965E+003  0.00000000E+000                         9.45  <-- SCF
      1  -7.98334031E+003  1.75481297E+001   3.00827519E-002       9.81  <-- SCF
      2  -7.98334039E+003  1.75481296E+001   9.70671713E-006      10.22  <-- SCF
      3  -7.98334025E+003  1.75507496E+001  -1.78977586E-005      10.64  <-- SCF
      4  -7.98334024E+003  1.75493789E+001  -3.22972462E-007      11.07  <-- SCF
      5  -7.98334024E+003  1.75499945E+001  -3.20196750E-007      11.46  <-- SCF
[...]
 output       pressure unit                     : GPa
 output     inv_length unit                     : 1/A
 output      frequency unit                     : cm-1
 output force constant unit                     : eV/A**2
 output         volume unit                     : A**3
 output   IR intensity unit                     : (D/A)**2/amu
 output         dipole unit                     : D
 output         efield unit                     : eV/A/e
 output        entropy unit                     : J/mol/K

 wavefunctions paging                           : none
<<<<<<< HEAD
 random number generator seed                   : randomised (123604068)
 random number generator seed                   : randomised (130903879)
>>>>>>> test
 data distribution                              : optimal for this architecture
 optimization strategy                          : maximize speed(+++)

 *********************** Exchange-Correlation Parameters ***********************

 using functional                               : Local Density Approximation
 relativistic treatment                         : Koelling-Harmon
 DFT+D: Semi-empirical dispersion correction    : off

 ************************* Pseudopotential Parameters **************************

 pseudopotential representation                 : reciprocal space
 <beta|phi> representation                      : reciprocal space
 spin-orbit coupling                            : off

 **************************** Basis Set Parameters *****************************

 plane wave basis set cut-off                   :   280.0000   eV
 size of standard grid                          :     2.0000
 size of   fine   gmax                          :    17.1454   1/A
 finite basis set correction                    : automatic
 number of sample energies                      :          3
           sample  spacing                      :     5.0000   eV

 **************************** Electronic Parameters ****************************

 number of  electrons                           :  80.00
 net charge of system                           :  0.000
 treating system as non-spin-polarized
 number of bands                                :         48

 ********************* Electronic Minimization Parameters **********************

 Method: Treating system as metallic with density mixing treatment of electrons,
         and number of  SD  steps               :          1
         and number of  CG  steps               :          4

 total energy / atom convergence tol.           : 0.1000E-06   eV
 eigen-energy convergence tolerance             : 0.2000E-07   eV
 max force / atom convergence tol.              : ignored
 convergence tolerance window                   :          3   cycles
 max. number of SCF cycles                      :         60
 number of fixed-spin iterations                :         10
 smearing scheme                                : Gaussian
 smearing width                                 : 0.2000       eV
 Fermi energy convergence tolerance             : 0.2721E-13   eV
 periodic dipole correction                     : NONE

 ************************** Density Mixing Parameters **************************

 density-mixing scheme                          : Pulay
 max. length of mixing history                  :         30
 charge density mixing amplitude                : 0.8000
 cut-off energy for mixing                      :  280.0       eV

 *********************** Population Analysis Parameters ************************

 Population analysis with cutoff                :  3.000       A

                                      Unit Cell
        Real Lattice(A)                      Reciprocal Lattice(1/A)
   4.2000000   0.0000000   0.0000000        1.4959965   0.0000000   0.0000000
   0.0000000   4.2000000   0.0000000        0.0000000   1.4959965   0.0000000
   0.0000000   0.0000000   4.2000000        0.0000000   0.0000000   1.4959965

                       Lattice parameters(A)       Cell Angles
                    a =    4.200000          alpha =   90.000000
                    b =    4.200000          beta  =   90.000000
                    c =    4.200000          gamma =   90.000000

                       Current cell volume =   74.088000       A**3

                                     Cell Contents
                         Total number of ions in cell =    8
                      Total number of species in cell =    1
                        Max number of any one species =    8

            x  Element    Atom        Fractional coordinates of atoms  x
            x            Number           u          v          w      x
            x  Ca           1         0.000000   0.000000   0.000000   x
            x  Ca           2         0.500000   0.000000   0.000000   x
            x  Ca           3         0.000000   0.500000   0.000000   x
            x  Ca           4         0.500000   0.500000   0.000000   x
            x  Ca           5         0.000000   0.000000   0.500000   x
            x  Ca           6         0.500000   0.000000   0.500000   x
            x  Ca           7         0.000000   0.500000   0.500000   x
            x  Ca           8         0.500000   0.500000   0.500000   x

                         No user defined ionic velocities

                                   Details of Species

                               Mass of species in AMU
                                    Ca   40.0780000

                          Electric Quadrupole Moment (Barn)
                                    Ca   -0.0408000 Isotope 43

                          Files used for pseudopotentials:
                                    Ca 3|2.0|7|8|9|30U:40:31:32

                              k-Points For BZ Sampling
                       MP grid size for SCF calculation is  3  3  3
                            with an offset of   0.000  0.000  0.000
                       Number of kpoints used =             4

                               Symmetry and Constraints

                      Cell is a supercell containing 8 primitive cells
                      Maximum deviation from symmetry = 0.940008E-15     ANG

                      Number of symmetry operations   =         384
                      Number of ionic constraints     =           3
                      Point group of crystal =    32: Oh, m-3m, 4/m -3 2/m
                      Space group of crystal =   221: Pm-3m, -P 4 2 3

             Set iprint > 1 for details on symmetry rotations/translations

                         Centre of mass is constrained
             Set iprint > 1 for details of linear ionic constraints

                         Number of cell constraints= 5
                         Cell constraints are:  1 1 1 0 0 0

                         External pressure/stress (GPa)
                          0.00000   0.00000   0.00000
                                    0.00000   0.00000
                                              0.00000

[...]

NB est. 0K energy (E-0.5TS)      =  -7983.148629342     eV
Initial  -6.38902985E+003  0.00000000E+000                         6.37  <-- SCF
      1  -7.80709971E+003  1.89975039E+001   1.77258732E+002       6.87  <-- SCF
      2  -7.97887788E+003  1.75674420E+001   2.14722711E+001       7.24  <-- SCF
      3  -7.98324239E+003  1.74980171E+001   5.45563491E-001       7.64  <-- SCF
      4  -7.98320107E+003  1.75239310E+001  -5.16540788E-003       8.10  <-- SCF
      5  -7.98319763E+003  1.75502980E+001  -4.29526211E-004       8.57  <-- SCF
      6  -7.98319761E+003  1.75483324E+001  -2.83525226E-006       9.03  <-- SCF
      7  -7.98319761E+003  1.75486879E+001   4.03601888E-007       9.45  <-- SCF
      8  -7.98319761E+003  1.75485684E+001  -2.24690315E-009       9.77  <-- SCF
      9  -7.98319761E+003  1.75485913E+001   2.61445869E-009      10.09  <-- SCF
------------------------------------------------------------------------ <-- SCF

[...]

NB est. 0K energy (E-0.5TS)      =  -7983.148630436     eV
>>>>>>> test

Calculating total energy with cut-off of  275.000eV.
------------------------------------------------------------------------ <-- SCF
SCF loop      Energy           Fermi           Energy gain       Timer   <-- SCF
                               energy          per atom          (sec)   <-- SCF
------------------------------------------------------------------------ <-- SCF
<<<<<<< HEAD
Initial  -7.98309965E+003  0.00000000E+000                         9.52  <-- SCF
      1  -7.98334031E+003  1.75481293E+001   3.00827536E-002       9.89  <-- SCF
      2  -7.98334039E+003  1.75481293E+001   9.71437625E-006      10.30  <-- SCF
      3  -7.98334025E+003  1.75507497E+001  -1.79024171E-005      10.73  <-- SCF
      4  -7.98334024E+003  1.75493786E+001  -3.22270220E-007      11.17  <-- SCF
      5  -7.98334024E+003  1.75499945E+001  -3.20560632E-007      11.56  <-- SCF
      6  -7.98334024E+003  1.75498923E+001  -1.82325721E-008      11.85  <-- SCF
      7  -7.98334024E+003  1.75498870E+001   4.33100685E-010      12.14  <-- SCF
------------------------------------------------------------------------ <-- SCF

[...]

NB est. 0K energy (E-0.5TS)      =  -7983.291763067     eV
Initial  -7.98309965E+003  0.00000000E+000                        10.24  <-- SCF
      1  -7.98334031E+003  1.75481347E+001   3.00828622E-002      10.59  <-- SCF
      2  -7.98334039E+003  1.75481346E+001   9.59046189E-006      10.99  <-- SCF
      3  -7.98334025E+003  1.75507488E+001  -1.78559651E-005      11.40  <-- SCF
      4  -7.98334025E+003  1.75493796E+001  -3.22287234E-007      11.83  <-- SCF
      5  -7.98334024E+003  1.75499945E+001  -3.19204872E-007      12.21  <-- SCF
      6  -7.98334024E+003  1.75498923E+001  -1.82499735E-008      12.51  <-- SCF
      7  -7.98334024E+003  1.75498870E+001   4.23433259E-010      12.78  <-- SCF
------------------------------------------------------------------------ <-- SCF

[...]

NB est. 0K energy (E-0.5TS)      =  -7983.291764293     eV
>>>>>>> test

Calculating total energy with cut-off of  280.000eV.
------------------------------------------------------------------------ <-- SCF
SCF loop      Energy           Fermi           Energy gain       Timer   <-- SCF
                               energy          per atom          (sec)   <-- SCF
------------------------------------------------------------------------ <-- SCF
<<<<<<< HEAD
Initial  -7.98324328E+003  0.00000000E+000                        12.28  <-- SCF
      1  -7.98342135E+003  1.75482385E+001   2.22577025E-002      12.57  <-- SCF
      2  -7.98342138E+003  1.75482379E+001   4.79573201E-006      12.92  <-- SCF
      3  -7.98342133E+003  1.75494871E+001  -6.57564028E-006      13.34  <-- SCF
      4  -7.98342133E+003  1.75486939E+001  -1.34251545E-007      13.70  <-- SCF
      5  -7.98342133E+003  1.75490831E+001  -8.41156936E-008      13.98  <-- SCF
      6  -7.98342133E+003  1.75489829E+001  -1.61202395E-008      14.26  <-- SCF
      7  -7.98342133E+003  1.75489757E+001   1.52938679E-010      14.53  <-- SCF
------------------------------------------------------------------------ <-- SCF

[...]

 For future reference: finite basis dEtot/dlog(Ecut) =      -5.603675eV
 Total energy corrected for finite basis set =   -7983.427657 eV
Initial  -7.98324329E+003  0.00000000E+000                        12.92  <-- SCF
      1  -7.98342135E+003  1.75482386E+001   2.22577031E-002      13.22  <-- SCF
      2  -7.98342139E+003  1.75482379E+001   4.79506302E-006      13.56  <-- SCF
      3  -7.98342133E+003  1.75494871E+001  -6.57543998E-006      13.98  <-- SCF
      4  -7.98342133E+003  1.75486939E+001  -1.34237624E-007      14.35  <-- SCF
      5  -7.98342133E+003  1.75490831E+001  -8.41259411E-008      14.63  <-- SCF
      6  -7.98342133E+003  1.75489829E+001  -1.61171459E-008      14.90  <-- SCF
      7  -7.98342133E+003  1.75489757E+001   1.54485468E-010      15.17  <-- SCF
------------------------------------------------------------------------ <-- SCF

Final energy, E             =  -7983.324111538     eV
Final free energy (E-TS)    =  -7983.421331234     eV
(energies not corrected for finite basis set)

NB est. 0K energy (E-0.5TS)      =  -7983.372721386     eV

 For future reference: finite basis dEtot/dlog(Ecut) =      -5.603675eV
 Total energy corrected for finite basis set =   -7983.427658 eV
>>>>>>> test

 ***************** Symmetrised Forces *****************
 *            Cartesian components (eV/A)             *
 *                   x            y            z      *
 * Ca        1      0.00000      0.00000      0.00000 *
 * Ca        2      0.00000      0.00000      0.00000 *
 * Ca        3      0.00000      0.00000      0.00000 *
 * Ca        4      0.00000      0.00000      0.00000 *
 * Ca        5      0.00000      0.00000      0.00000 *
 * Ca        6      0.00000      0.00000      0.00000 *
 * Ca        7      0.00000      0.00000      0.00000 *
 * Ca        8      0.00000      0.00000      0.00000 *

 *********** Symmetrised Stress Tensor ***********
 *          Cartesian components (GPa)           *
 *             x             y             z     *
<<<<<<< HEAD
 *  x   -177.254001      0.000000      0.000000  *
 *  y      0.000000   -177.254001      0.000000  *
 *  z      0.000000      0.000000   -177.254001  *
 *  x   -177.254005      0.000000      0.000000  *
 *  y      0.000000   -177.254005      0.000000  *
 *  z      0.000000      0.000000   -177.254005  *
>>>>>>> test
 *  Pressure:  177.2540                          *

 Pseudo atomic calculation performed for Ca 3s2 3p6 4s2

 Converged in 24 iterations to a total energy of -1001.5365 eV

Charge spilling parameter for spin component 1 = 0.24%

     Atomic Populations (Mulliken)
Species   Ion     s      p      d      f     Total  Charge (e)
  Ca       1     2.01   5.74   2.25   0.00  10.00     0.00
  Ca       2     2.01   5.74   2.25   0.00  10.00     0.00
  Ca       3     2.01   5.74   2.25   0.00  10.00     0.00
  Ca       4     2.01   5.74   2.25   0.00  10.00     0.00
  Ca       5     2.01   5.74   2.25   0.00  10.00     0.00
  Ca       6     2.01   5.74   2.25   0.00  10.00     0.00
  Ca       7     2.01   5.74   2.25   0.00  10.00     0.00
  Ca       8     2.01   5.74   2.25   0.00  10.00     0.00

            Bond              Population      Length (A)
<<<<<<< HEAD
         Ca 7 -- Ca 8             -0.47        2.10000
         Ca 6 -- Ca 8             -0.47        2.10000
         Ca 5 -- Ca 7             -0.47        2.10000
         Ca 5 -- Ca 6             -0.47        2.10000
         Ca 4 -- Ca 8             -0.47        2.10000
         Ca 3 -- Ca 7             -0.47        2.10000
         Ca 3 -- Ca 4             -0.47        2.10000
         Ca 2 -- Ca 6             -0.47        2.10000
         Ca 2 -- Ca 4             -0.47        2.10000
         Ca 1 -- Ca 5             -0.47        2.10000
         Ca 1 -- Ca 3             -0.47        2.10000
         Ca 1 -- Ca 2             -0.47        2.10000
         Ca 7 -- Ca 8             -0.48        2.10000
         Ca 6 -- Ca 8             -0.48        2.10000
         Ca 5 -- Ca 7             -0.48        2.10000
         Ca 5 -- Ca 6             -0.48        2.10000
         Ca 4 -- Ca 8             -0.48        2.10000
         Ca 3 -- Ca 7             -0.48        2.10000
         Ca 3 -- Ca 4             -0.48        2.10000
         Ca 2 -- Ca 6             -0.48        2.10000
         Ca 2 -- Ca 4             -0.48        2.10000
         Ca 1 -- Ca 5             -0.48        2.10000
         Ca 1 -- Ca 3             -0.48        2.10000
         Ca 1 -- Ca 2             -0.48        2.10000
>>>>>>> test
         Ca 6 -- Ca 7              0.30        2.96985
         Ca 5 -- Ca 8              0.30        2.96985
         Ca 4 -- Ca 7              0.30        2.96985
         Ca 4 -- Ca 6              0.30        2.96985
         Ca 3 -- Ca 8              0.30        2.96985
         Ca 3 -- Ca 5              0.30        2.96985
         Ca 2 -- Ca 8              0.30        2.96985
         Ca 2 -- Ca 5              0.30        2.96985
         Ca 2 -- Ca 3              0.30        2.96985
         Ca 1 -- Ca 7              0.30        2.96985
         Ca 1 -- Ca 6              0.30        2.96985
         Ca 1 -- Ca 4              0.30        2.96985

Writing analysis data to ../0.castep_bin

Writing model to ../0.check

 A BibTeX formatted list of references used in this run has been written to
 ../0.bib

<<<<<<< HEAD
Initialisation time =      4.86 s
Calculation time    =     11.68 s
Finalisation time   =      2.63 s
Total time          =     19.17 s
Initialisation time =      5.61 s
Calculation time    =     11.69 s
Finalisation time   =      0.39 s
Total time          =     17.69 s
>>>>>>> test