<<<<<<< HEAD
 Run started: Wed, 27 Apr 2016 12:37:49 +0100
 Run started: Fri, 29 Apr 2016 13:05:57 +0100
>>>>>>> test

 Atomic calculation performed for Mg: 1s2 2s2 2p6 3s2

 Converged in 47 iterations to an ae energy of -5427.407 eV

<<<<<<< HEAD
   | Pseudopotential Report - Date of generation 27-04-2016   |
   | Element: Mg Ionic charge: 10.00 Level of theory: LDA     |
   | Atomic Solver: Koelling-Harmon                           |
   |               Reference Electronic Structure             |
   |         Orbital         Occupation         Energy        |
   |            2s              2.000           -2.914        |
   |            2p              6.000           -1.717        |
   |            3s              2.000           -0.176        |
   |                 Pseudopotential Definition               |
   |        Beta     l      e      Rc     scheme   norm       |
   |          1      0   -2.914   1.804     qc      0         |
   |          2      0   -0.176   1.804     qc      0         |
   |          3      0    0.250   1.804     qc      0         |
   |          4      1   -1.717   1.804     qc      0         |
   |          5      1    0.250   1.804     qc      0         |
   |          6      2    0.000   1.804     qc      0         |
   |          7      2    0.250   1.804     qc      0         |
   |         loc     3    0.000   1.804     pn      0         |
   | Augmentation charge Rinner = 1.261                       |
   | Partial core correction Rc = 1.261                       |
   | "3|1.8|7|8|9|20U:30:21:32"                               |
   |      Author: Chris J. Pickard, Cambridge University      |

 Atomic calculation performed for Ca: 1s2 2s2 2p6 3s2 3p6 4s2

 Converged in 44 iterations to an ae energy of -18468.059 eV

   | Pseudopotential Report - Date of generation 27-04-2016   |
   | Element: Ca Ionic charge: 10.00 Level of theory: LDA     |
   | Atomic Solver: Koelling-Harmon                           |
   |               Reference Electronic Structure             |
   |         Orbital         Occupation         Energy        |
   |            3s              2.000           -1.721        |
   |            3p              6.000           -1.028        |
   |            4s              2.000           -0.142        |
   |                 Pseudopotential Definition               |
   |        Beta     l      e      Rc     scheme   norm       |
   |          1      0   -1.721   2.005     qc      0         |
   |          2      0   -0.142   2.005     qc      0         |
   |          3      0    0.250   2.005     qc      0         |
   |          4      1   -1.028   2.005     qc      0         |
   |          5      1    0.250   2.005     qc      0         |
   |          6      2    0.000   2.005     qc      0         |
   |          7      2    0.250   2.005     qc      0         |
   |         loc     3    0.000   2.005     pn      0         |
   | Augmentation charge Rinner = 1.401                       |
   | Partial core correction Rc = 1.401                       |
   | "3|2.0|7|8|9|30U:40:31:32"                               |
   |      Author: Chris J. Pickard, Cambridge University      |

 Pseudo atomic calculation performed for Mg 2s2 2p6 3s2

 Converged in 19 iterations to a total energy of -1684.3182 eV

[...]

 Calculation not parallelised.

 ************************************ Title ************************************
 MgO

 ***************************** General Parameters ******************************

 output verbosity                               : normal  (1)
 write checkpoint data to                       : ../4.check
 type of calculation                            : single point energy
 stress calculation                             : on
 density difference calculation                 : off
 electron localisation func (ELF) calculation   : off
 Hirshfeld analysis                             : off
 unlimited duration calculation
 timing information                             : on
 write final potential to formatted file        : off
 write final density to formatted file          : off
 write BibTeX reference list                    : on
 write OTFG pseudopotential files               : on
 checkpoint writing                             : both castep_bin and check files

 output         length unit                     : A
 output           mass unit                     : amu
 output           time unit                     : ps
 output         charge unit                     : e
 output           spin unit                     : hbar/2
 output         energy unit                     : eV
 output          force unit                     : eV/A
 output       velocity unit                     : A/ps
 output       pressure unit                     : GPa
 output     inv_length unit                     : 1/A
 output      frequency unit                     : cm-1
 output force constant unit                     : eV/A**2
 output         volume unit                     : A**3
 output   IR intensity unit                     : (D/A)**2/amu
 output         dipole unit                     : D
 output         efield unit                     : eV/A/e
 output        entropy unit                     : J/mol/K

 wavefunctions paging                           : none
 random number generator seed                   : randomised (123749228)
 data distribution                              : optimal for this architecture
 optimization strategy                          : maximize speed(+++)

 *********************** Exchange-Correlation Parameters ***********************

 using functional                               : Local Density Approximation
 relativistic treatment                         : Koelling-Harmon
 DFT+D: Semi-empirical dispersion correction    : off

 ************************* Pseudopotential Parameters **************************

 pseudopotential representation                 : reciprocal space
 <beta|phi> representation                      : reciprocal space
 spin-orbit coupling                            : off

 **************************** Basis Set Parameters *****************************

 plane wave basis set cut-off                   :   280.0000   eV
 size of standard grid                          :     2.0000
 size of   fine   gmax                          :    17.1454   1/A
 finite basis set correction                    : automatic
 number of sample energies                      :          3
           sample  spacing                      :     5.0000   eV

 **************************** Electronic Parameters ****************************

 number of  electrons                           :  80.00
 net charge of system                           :  0.000
 treating system as non-spin-polarized
 number of bands                                :         48

 ********************* Electronic Minimization Parameters **********************

 Method: Treating system as metallic with density mixing treatment of electrons,
         and number of  SD  steps               :          1
         and number of  CG  steps               :          4

 total energy / atom convergence tol.           : 0.1000E-06   eV
 eigen-energy convergence tolerance             : 0.2000E-07   eV
 max force / atom convergence tol.              : ignored
 convergence tolerance window                   :          3   cycles
 max. number of SCF cycles                      :         60
 number of fixed-spin iterations                :         10
 smearing scheme                                : Gaussian
 smearing width                                 : 0.2000       eV
 Fermi energy convergence tolerance             : 0.2721E-13   eV
 periodic dipole correction                     : NONE

 ************************** Density Mixing Parameters **************************

 density-mixing scheme                          : Pulay
 max. length of mixing history                  :         30
 charge density mixing amplitude                : 0.8000
 cut-off energy for mixing                      :  280.0       eV

 *********************** Population Analysis Parameters ************************

 Population analysis with cutoff                :  3.000       A

                                      Unit Cell
        Real Lattice(A)                      Reciprocal Lattice(1/A)
   4.2000000   0.0000000   0.0000000        1.4959965   0.0000000   0.0000000
   0.0000000   4.2000000   0.0000000        0.0000000   1.4959965   0.0000000
   0.0000000   0.0000000   4.2000000        0.0000000   0.0000000   1.4959965

                       Lattice parameters(A)       Cell Angles
                    a =    4.200000          alpha =   90.000000
                    b =    4.200000          beta  =   90.000000
                    c =    4.200000          gamma =   90.000000

                       Current cell volume =   74.088000       A**3

                                     Cell Contents
                         Total number of ions in cell =    8
                      Total number of species in cell =    2
                        Max number of any one species =    4

            x  Element    Atom        Fractional coordinates of atoms  x
            x            Number           u          v          w      x
            x  Mg           1         0.000000   0.000000   0.000000   x
            x  Mg           2         0.000000   0.500000   0.000000   x
            x  Mg           3         0.000000   0.000000   0.500000   x
            x  Mg           4         0.500000   0.000000   0.500000   x
            x  Ca           1         0.500000   0.000000   0.000000   x
            x  Ca           2         0.500000   0.500000   0.000000   x
            x  Ca           3         0.000000   0.500000   0.500000   x
            x  Ca           4         0.500000   0.500000   0.500000   x

                         No user defined ionic velocities

                                   Details of Species

                               Mass of species in AMU
                                    Mg   24.3050000
                                    Ca   40.0780000

                          Electric Quadrupole Moment (Barn)
                                    Mg    0.1994000 Isotope 25
                                    Ca   -0.0408000 Isotope 43

                          Files used for pseudopotentials:
                                    Mg 3|1.8|7|8|9|20U:30:21:32
                                    Ca 3|2.0|7|8|9|30U:40:31:32

                              k-Points For BZ Sampling
                       MP grid size for SCF calculation is  3  3  3
                            with an offset of   0.000  0.000  0.000
                       Number of kpoints used =             6

                               Symmetry and Constraints

                      Maximum deviation from symmetry = 0.940008E-15     ANG

                      Number of symmetry operations   =          16
                      Number of ionic constraints     =           3
                      Point group of crystal =    15: D4h, 4/mmm, 4/m 2/m 2/m
                      Space group of crystal =   131: P4_2/mmc, -P 4c 2

             Set iprint > 1 for details on symmetry rotations/translations

                         Centre of mass is constrained
             Set iprint > 1 for details of linear ionic constraints

                         Number of cell constraints= 5
                         Cell constraints are:  1 1 1 0 0 0

                         External pressure/stress (GPa)
                          0.00000   0.00000   0.00000
                                    0.00000   0.00000
                                              0.00000

Final energy, E             =  -10720.81781276     eV
Final free energy (E-TS)    =  -10720.86818425     eV
(energies not corrected for finite basis set)

NB est. 0K energy (E-0.5TS)      =  -10720.84299851     eV

Calculating total energy with cut-off of  275.000eV.
------------------------------------------------------------------------ <-- SCF
SCF loop      Energy           Fermi           Energy gain       Timer   <-- SCF
                               energy          per atom          (sec)   <-- SCF
------------------------------------------------------------------------ <-- SCF
Initial  -1.07208178E+004  0.00000000E+000                        16.23  <-- SCF
      1  -1.07210765E+004  1.35962583E+001   3.23318710E-002      16.79  <-- SCF
      2  -1.07210767E+004  1.35962579E+001   3.11728070E-005      17.51  <-- SCF
      3  -1.07210765E+004  1.35994070E+001  -2.88824391E-005      18.15  <-- SCF
      4  -1.07210765E+004  1.35958379E+001   7.59789885E-006      18.81  <-- SCF
      5  -1.07210766E+004  1.36005602E+001   8.13200538E-006      19.42  <-- SCF
      6  -1.07210765E+004  1.35981839E+001  -1.59743644E-005      20.02  <-- SCF
      7  -1.07210765E+004  1.35980290E+001  -5.79742197E-007      20.61  <-- SCF
      8  -1.07210765E+004  1.35981779E+001  -4.78624594E-008      21.08  <-- SCF
      9  -1.07210765E+004  1.35981479E+001  -3.19682443E-009      21.50  <-- SCF
------------------------------------------------------------------------ <-- SCF

[...]

Calculating total energy with cut-off of  280.000eV.
------------------------------------------------------------------------ <-- SCF
SCF loop      Energy           Fermi           Energy gain       Timer   <-- SCF
                               energy          per atom          (sec)   <-- SCF
------------------------------------------------------------------------ <-- SCF
Initial  -1.07210265E+004  0.00000000E+000                        21.70  <-- SCF
      1  -1.07212002E+004  1.35976322E+001   2.17058656E-002      22.23  <-- SCF
      2  -1.07212003E+004  1.35976321E+001   1.54083003E-005      22.88  <-- SCF
      3  -1.07212002E+004  1.35992632E+001  -1.14165613E-005      23.51  <-- SCF
      4  -1.07212002E+004  1.35975780E+001   1.11027178E-006      24.16  <-- SCF
      5  -1.07212002E+004  1.36003618E+001   4.68425382E-006      24.76  <-- SCF
      6  -1.07212002E+004  1.35983308E+001  -5.16404644E-006      25.36  <-- SCF
      7  -1.07212002E+004  1.35985213E+001  -7.00344689E-007      25.93  <-- SCF
      8  -1.07212002E+004  1.35986291E+001  -4.61076282E-008      26.39  <-- SCF
      9  -1.07212002E+004  1.35986073E+001  -1.61852046E-009      26.81  <-- SCF
------------------------------------------------------------------------ <-- SCF

Final energy, E             =  -10721.15022205     eV
Final free energy (E-TS)    =  -10721.20018829     eV
(energies not corrected for finite basis set)

NB est. 0K energy (E-0.5TS)      =  -10721.17520517     eV

 For future reference: finite basis dEtot/dlog(Ecut) =      -8.306827eV
 Total energy corrected for finite basis set =  -10721.209568 eV

 ***************** Symmetrised Forces *****************
 *            Cartesian components (eV/A)             *
 *                   x            y            z      *
 * Mg        1      0.00000      0.00000      0.00000 *
 * Mg        2      0.00000      0.00000      0.00000 *
 * Mg        3      0.00000      0.00000      0.00000 *
 * Mg        4      0.00000      0.00000      0.00000 *
 * Ca        1      0.00000      0.00000      0.00000 *
 * Ca        2      0.00000      0.00000      0.00000 *
 * Ca        3      0.00000      0.00000      0.00000 *
 * Ca        4      0.00000      0.00000      0.00000 *

 *********** Symmetrised Stress Tensor ***********
 *          Cartesian components (GPa)           *
 *             x             y             z     *
 *  x   -189.163490      0.000000      0.000000  *
 *  y      0.000000   -189.163490      0.000000  *
 *  z      0.000000      0.000000   -190.206980  *
 *  Pressure:  189.5113                          *

[...]

 Pseudo atomic calculation performed for Ca 3s2 3p6 4s2

 Converged in 24 iterations to a total energy of -1001.5365 eV

Charge spilling parameter for spin component 1 = 0.33%

     Atomic Populations (Mulliken)
Species   Ion     s      p      d      f     Total  Charge (e)
  Mg       1     2.53   8.42   0.00   0.00  10.95    -0.95
  Mg       2     2.29   7.83   0.00   0.00  10.13    -0.13
  Mg       3     2.53   8.42   0.00   0.00  10.95    -0.95
  Mg       4     2.29   7.83   0.00   0.00  10.13    -0.13
  Ca       1     0.77   5.76   2.50   0.00   9.03     0.97
  Ca       2     1.77   5.76   2.36   0.00   9.89     0.11
  Ca       3     0.77   5.76   2.50   0.00   9.03     0.97
  Ca       4     1.77   5.76   2.36   0.00   9.89     0.11

            Bond              Population      Length (A)
         Ca 3 -- Ca 4             -7.14        2.10000
         Ca 2 -- Ca 4             -1.45        2.10000
         Ca 1 -- Ca 2             -7.14        2.10000
         Mg 4 -- Ca 4             -2.17        2.10000
         Mg 4 -- Ca 1             -6.66        2.10000
         Mg 3 -- Ca 3             -8.63        2.10000
         Mg 3 -- Mg 4              0.23        2.10000
         Mg 2 -- Ca 3             -6.66        2.10000
         Mg 2 -- Ca 2             -2.17        2.10000
         Mg 1 -- Ca 1             -8.63        2.10000
         Mg 1 -- Mg 3             -2.30        2.10000
         Mg 1 -- Mg 2              0.23        2.10000
         Ca 2 -- Ca 3             -0.87        2.96985
         Ca 1 -- Ca 4             -0.87        2.96985
         Mg 4 -- Ca 3             -3.55        2.96985
         Mg 4 -- Ca 2             -0.22        2.96985
         Mg 3 -- Ca 4              2.03        2.96985
         Mg 3 -- Ca 1             -1.34        2.96985
         Mg 2 -- Ca 4             -0.22        2.96985
         Mg 2 -- Ca 1             -3.55        2.96985
         Mg 2 -- Mg 3              2.91        2.96985
         Mg 1 -- Ca 3             -1.34        2.96985
         Mg 1 -- Ca 2              2.03        2.96985
         Mg 1 -- Mg 4              2.91        2.96985

Writing analysis data to ../4.castep_bin

Writing model to ../4.check

 A BibTeX formatted list of references used in this run has been written to
 ../4.bib

Initialisation time =      8.23 s
Calculation time    =     20.94 s
Finalisation time   =      0.47 s
Total time          =     29.64 s
>>>>>>> test