 Compiled for linux_x86_64_gfortran on Wed Nov 21 15:08:09 2012
 from source code version eaed21d6e002+  2012-10-31
 using fast optimisation, fftw3 FFTs and openblas LAPACK and BLAS.

 Atomic calculation performed for O: 1s2 2s2 2p4

 Converged in 60 iterations to an ae energy of -2027.926 eV

   | Pseudopotential Report - Date of generation  3-05-2016   |
   | Element: O Ionic charge:  6.00 Level of theory: LDA      |
   |               Reference Electronic Structure             |
   |         Orbital         Occupation         Energy        |
   |            2s              2.000           -0.873        |
   |            2p              4.000           -0.338        |
   |                 Pseudopotential Definition               |
   |        Beta     l      e      Rc     scheme   norm       |
   |          1      0   -0.873   1.300     qc      0         |
   |          2      0    0.250   1.300     qc      0         |
   |          3      1   -0.338   1.300     qc      0         |
   |          4      1    0.250   1.300     qc      0         |
   |         loc     2    0.000   1.004     pn      0         |
   | Augmentation charge Rinner = 0.701                       |
   | Partial core correction Rc = 0.701                       |
   | "2|1.0|1.3|0.7|13|16|18|20:21(qc=7)"                     |
   |      Author: Chris J. Pickard, Cambridge University      |

 Atomic calculation performed for Mg: 1s2 2s2 2p6 3s2

[...]

 Identity difference:   5.17267234911703770E-004

   | Pseudopotential Report - Date of generation  3-05-2016   |
   | Element: Mg Ionic charge:  8.00 Level of theory: LDA     |
   |               Reference Electronic Structure             |
   |         Orbital         Occupation         Energy        |
   |            2p              6.000           -1.717        |
   |            3s              2.000           -0.176        |
   |                 Pseudopotential Definition               |
   |        Beta     l      e      Rc     scheme   norm       |
   |          1      0   -0.176   1.994     qc      1         |
   |          2      1   -1.717   1.994     qc      0         |
   |          3      1    0.000   1.994     qc      0         |
   |          4      1    0.250   1.994     qc      0         |
   |         loc     2    0.000   1.605     pn      0         |
   | Augmentation charge Rinner = 1.405                       |
   | Partial core correction Rc = 1.405                       |
   | "2|1.6|2|1.4|6|7|8|30NH:21U:31UU:32LGG(qc=4.5)[]"        |
   |      Author: Chris J. Pickard, Cambridge University      |

 Doing a self consistent calculation for the test configuration

 Atomic calculation performed for Mg: 1s2 2s2 2p6 3s2

[...]

 AE eigenvalue nl 10 =      -46.06264936
 AE eigenvalue nl 20 =       -2.91364591
 AE eigenvalue nl 21 =       -1.71672732
 AE eigenvalue nl 30 =       -0.17593422
 PS eigenvalue nl 21 =       -1.71622098
 PS eigenvalue nl 30 =       -0.17592300

 Atomic calculation performed for Ca: 1s2 2s2 2p6 3s2 3p6 4s2

 Converged in 44 iterations to an ae energy of -18468.058 eV

   | Pseudopotential Report - Date of generation  3-05-2016   |
   | Element: Ca Ionic charge: 10.00 Level of theory: LDA     |
   |               Reference Electronic Structure             |
   |         Orbital         Occupation         Energy        |
   |            3s              2.000           -1.721        |
   |            3p              6.000           -1.028        |
   |            4s              2.000           -0.142        |
   |                 Pseudopotential Definition               |
   |        Beta     l      e      Rc     scheme   norm       |
   |          1      0   -1.721   2.005     qc      0         |
   |          2      0   -0.142   2.005     qc      0         |
   |          3      1   -1.028   2.005     qc      0         |
   |          4      1    0.250   2.005     qc      0         |
   |          5      2    0.000   2.005     qc      0         |
   |          6      2    1.000   2.005     qc      0         |
   |         loc     3    0.000   1.601     pn      0         |
   | Augmentation charge Rinner = 1.401                       |
   | Partial core correction Rc = 1.401                       |
   | "3|1.6|2.0|1.4|7|9|10|30U:40U:31:32U=0U=1.0"             |
   |      Author: Chris J. Pickard, Cambridge University      |

 Pseudo atomic calculation performed for O 2s2 2p4

 Converged in 30 iterations to a total energy of -431.1785 eV

 Pseudo atomic calculation performed for Mg 2p6 3s2

[...]

 Pseudo atomic calculation performed for Ca 3s2 3p6 4s2

[...]

 Calculation parallelised over 2 processes.
 Data is distributed by k-point(2-way)

 ************************************ Title ************************************
 MgO

 ***************************** General Parameters ******************************

 output verbosity                               : normal  (1)
 write checkpoint data to                       : dan_0.check
 type of calculation                            : geometry optimization
 stress calculation                             : on
 density difference calculation                 : off
 electron localisation func (ELF) calculation   : off
 Hirshfeld analysis                             : off
 unlimited duration calculation
 timing information                             : on
 write final potential to formatted file        : off
 write final density to formatted file          : off
 write BibTeX reference list                    : on

 output         length unit                     : A
 output           mass unit                     : amu
 output           time unit                     : ps
 output         charge unit                     : e
 output         energy unit                     : eV
 output          force unit                     : eV/A
 output       velocity unit                     : A/ps
 output       pressure unit                     : GPa
 output     inv_length unit                     : 1/A
 output      frequency unit                     : cm-1
 output force constant unit                     : eV/A**2
 output         volume unit                     : A**3
 output   IR intensity unit                     : (D/A)**2/amu
 output         dipole unit                     : D
 output         efield unit                     : eV/A/e
 output        entropy unit                     : J/mol/K

 wavefunctions paging                           : none
 random number generator seed                   : randomised (220924851)
 data distribution                              : optimal for this architecture
 optimization strategy                          : maximize speed(+++)

 *********************** Exchange-Correlation Parameters ***********************

 using functional                               : Local Density Approximation
 Divergence correction                          : off
 DFT+D: Semi-empirical dispersion correction    : off

 ************************* Pseudopotential Parameters **************************

 pseudopotential representation                 : reciprocal space
 <beta|phi> representation                      : reciprocal space

 **************************** Basis Set Parameters *****************************

 plane wave basis set cut-off                   :   350.0000   eV
 size of standard grid                          :     2.0000
 size of   fine   gmax                          :    19.1691   1/A
 largest prime factor in FFT                    :          5
 finite basis set correction                    : automatic
 number of sample energies                      :          3
           sample  spacing                      :     5.0000   eV

 **************************** Electronic Parameters ****************************

 number of  electrons                           :  200.0
 net charge of system                           :  0.000
 net spin   of system                           :  0.000
 number of  up  spins                           :  100.0
 number of down spins                           :  100.0
 treating system as non-spin-polarized
 number of bands                                :        120

 ********************* Electronic Minimization Parameters **********************

 Method: Treating system as metallic with density mixing treatment of electrons,
         and number of  SD  steps               :          1
         and number of  CG  steps               :          4

 total energy / atom convergence tol.           : 0.1000E-06   eV
 eigen-energy convergence tolerance             : 0.2700E-07   eV
 max force / atom convergence tol.              : ignored
 convergence tolerance window                   :          3   cycles
 max. number of SCF cycles                      :         60
 number of fixed-spin iterations                :         10
 smearing scheme                                : Gaussian
 smearing width                                 : 0.2000       eV
 Fermi energy convergence tolerance             : 0.2700E-08   eV
 periodic dipole correction                     : NONE

 ************************** Density Mixing Parameters **************************

 density-mixing scheme                          : Pulay
 max. length of mixing history                  :         30
 charge density mixing amplitude                : 0.8000
 cut-off energy for mixing                      :  350.0       eV
 charge density mixing g-vector                 :  1.500       1/A

 *********************** Population Analysis Parameters ************************

 Population analysis with cutoff                :  3.000       A

 ********************** Geometry Optimization Parameters ***********************

 optimization method                            : BFGS
 variable cell method                           : fixed basis quality
 max. number of steps                           :         30
 estimated bulk modulus                         :  500.0       GPa
 estimated <frequency>                          :  1668.       cm-1
 geom line minimiser                            : on
 with line minimiser tolerance                  :     0.4000
 total energy convergence tolerance             : 0.2000E-04   eV/atom
        max ionic |force| tolerance             : 0.5000E-01   eV/A
 max ionic |displacement| tolerance             : 0.1000E-02   A
   max |stress component| tolerance             : 0.1000       GPa
 convergence tolerance window                   :          2   steps
 backup results every                           :          5   steps

                                      Unit Cell
        Real Lattice(A)                      Reciprocal Lattice(1/A)
   8.4000000   0.0000000   0.0000000        0.7479983   0.0000000   0.0000000
   0.0000000   8.4000000   0.0000000        0.0000000   0.7479983   0.0000000
   0.0000000   0.0000000   8.4000000        0.0000000   0.0000000   0.7479983

                       Lattice parameters(A)       Cell Angles
                    a =    8.400000          alpha =   90.000000
                    b =    8.400000          beta  =   90.000000
                    c =    8.400000          gamma =   90.000000

[...]
 *                        Cartesian components (eV/A)                         *
 *                   x                    y                    z              *
 * O         1      0.00000              1.91939              1.83398         *
 * O         2      1.91939             -0.00000              1.83398         *
 * O         3     -1.91939              0.00000              1.83398         *
 * O         4      0.00000             -1.91939              1.83398         *
 * O         5      2.20962              2.20962              0.15482         *
 * O         6     -2.20962              2.20962              0.15482         *
 * O         7      0.00000              0.00000             -0.15945         *
 * O         8      2.20962             -2.20962              0.15482         *
 * O         9     -2.20962             -2.20962              0.15482         *
 * O        10      0.00000              2.78410             -2.37852         *
 * O        11      2.78410              0.00000             -2.37852         *
 * O        12     -2.78410              0.00000             -2.37852         *
 * O        13      0.00000             -2.78410             -2.37852         *
 * Mg        1      2.11393              2.11393              2.48069         *
 * Mg        2     -2.11393              2.11393              2.48069         *
 * Mg        3      0.00000              0.00000              2.34448         *
 * Mg        4      2.11393             -2.11393              2.48069         *
 * Mg        5     -2.11393             -2.11393              2.48069         *
 * Mg        6      0.00000              2.01766             -0.10553         *
 * Mg        7      2.01766             -0.00000             -0.10553         *
 * Mg        8     -2.01766              0.00000             -0.10553         *
 * Mg        9      0.00000             -2.01766             -0.10553         *
 * Ca        1      2.90379              2.90379             -2.15251         *
 * Ca        2     -2.90379              2.90379             -2.15251         *
 * Ca        3      0.00000              0.00000             -1.51675         *
 * Ca        4      2.90379             -2.90379             -2.15251         *
 * Ca        5     -2.90379             -2.90379             -2.15251         *

 ***************** Stress Tensor *****************
 *          Cartesian components (GPa)           *
 *             x             y             z     *
 *  x      6.543402      0.000000      0.000000  *
 *  y      0.000000      6.543402      0.000000  *
 *  z      0.000000      0.000000      7.413127  *
 *  Pressure:   -6.8333                          *

 *********** Constrained Stress Tensor ***********
 *          Cartesian components (GPa)           *
 *             x             y             z     *
 *  x      6.890271      0.000000      0.000000  *
 *  y      0.000000      6.890271      0.000000  *
 *  z      0.000000      0.000000      6.890271  *
 *  Pressure:   -6.8903                          *

 +------------+-------------+-------------+-----------------+ <-- min BFGS
 |    Step    |   lambda    |   F.delta   |    enthalpy     | <-- min BFGS
 +------------+-------------+-------------+-----------------+ <-- min BFGS
 |  previous  |    0.000000 |    0.045464 |   -19944.873392 | <-- min BFGS
 | trial step |    1.000000 |    0.045430 |   -19946.126414 | <-- min BFGS
 +------------+-------------+-------------+-----------------+ <-- min BFGS

 BFGS: finished iteration    30 with enthalpy= -1.99461264E+004 eV

 +-----------+-----------------+-----------------+------------+-----+ <-- BFGS
 | Parameter |      value      |    tolerance    |    units   | OK? | <-- BFGS
 +-----------+-----------------+-----------------+------------+-----+ <-- BFGS
 |  dE/ion   |   4.640822E-002 |   2.000000E-005 |         eV | No  | <-- BFGS
 |  |F|max   |   4.636520E+000 |   5.000000E-002 |       eV/A | No  | <-- BFGS
 |  |dR|max  |   1.635589E-002 |   1.000000E-003 |          A | No  | <-- BFGS
 |   Smax    |   6.833566E+000 |   1.000000E-001 |        GPa | No  | <-- BFGS
 +-----------+-----------------+-----------------+------------+-----+ <-- BFGS

 BFGS : WARNING - Geometry optimization failed to converge after         30 steps

 BFGS : Final Configuration:

                                      Unit Cell
        Real Lattice(A)              Reciprocal Lattice(1/A)
   7.6027193   0.0000000   0.0000000        0.8264392   0.0000000   0.0000000
   0.0000000   7.6027193   0.0000000        0.0000000   0.8264392   0.0000000
   0.0000000   0.0000000   7.6027193        0.0000000   0.0000000   0.8264392

                       Lattice parameters(A)       Cell Angles
                    a =    7.602719          alpha =   90.000000
                    b =    7.602719          beta  =   90.000000
                    c =    7.602719          gamma =   90.000000

                Current cell volume =  439.447373 A**3

                                     Cell Contents

            x  Element    Atom        Fractional coordinates of atoms  x
            x            Number           u          v          w      x
            x  O            1         0.375000   0.006526   0.002289   x
            x  O            2         0.006526   0.375000   0.002289   x
            x  O            3         0.743474   0.375000   0.002289   x
            x  O            4         0.375000   0.743474   0.002289   x
            x  O            5         0.008489   0.008489   0.379571   x
            x  O            6         0.741511   0.008489   0.379571   x
            x  O            7         0.375000   0.375000   0.378780   x
            x  O            8         0.008489   0.741511   0.379571   x
            x  O            9         0.741511   0.741511   0.379571   x
            x  O           10         0.375000   0.021207   0.742337   x
            x  O           11         0.021207   0.375000   0.742337   x
            x  O           12         0.728793   0.375000   0.742337   x
            x  O           13         0.375000   0.728793   0.742337   x
            x  Mg           1         0.042439   0.042439   0.050425   x
            x  Mg           2         0.707561   0.042439   0.050425   x
            x  Mg           3         0.375000   0.375000   0.057681   x
            x  Mg           4         0.042439   0.707561   0.050425   x
            x  Mg           5         0.707561   0.707561   0.050425   x
            x  Mg           6         0.375000   0.044308   0.374214   x
            x  Mg           7         0.044308   0.375000   0.374214   x
            x  Mg           8         0.705692   0.375000   0.374214   x
            x  Mg           9         0.375000   0.705692   0.374214   x
            x  Ca           1         0.052656   0.052656   0.699116   x
            x  Ca           2         0.697344   0.052656   0.699116   x
            x  Ca           3         0.375000   0.375000   0.696735   x
            x  Ca           4         0.052656   0.697344   0.699116   x
            x  Ca           5         0.697344   0.697344   0.699116   x

 BFGS : Final Enthalpy     = -1.99461264E+004 eV
 BFGS : Final <frequency>  unchanged from initial value
 BFGS : Final bulk modulus unchanged from initial value

  *** There were at least     1 warnings during this run ***
  *** => please check the whole of this file carefully!  ***

 ***************************** Symmetrised Forces *****************************
 *                        Cartesian components (eV/A)                         *
 *                   x                    y                    z              *
 * O         1      0.00000              1.91939              1.83398         *
 * O         2      1.91939             -0.00000              1.83398         *
 * O         3     -1.91939              0.00000              1.83398         *
 * O         4      0.00000             -1.91939              1.83398         *
 * O         5      2.20962              2.20962              0.15482         *
 * O         6     -2.20962              2.20962              0.15482         *
 * O         7      0.00000              0.00000             -0.15945         *
 * O         8      2.20962             -2.20962              0.15482         *
 * O         9     -2.20962             -2.20962              0.15482         *
 * O        10      0.00000              2.78410             -2.37852         *
 * O        11      2.78410              0.00000             -2.37852         *
 * O        12     -2.78410              0.00000             -2.37852         *
 * O        13      0.00000             -2.78410             -2.37852         *
 * Mg        1      2.11393              2.11393              2.48069         *
 * Mg        2     -2.11393              2.11393              2.48069         *
 * Mg        3      0.00000              0.00000              2.34448         *
 * Mg        4      2.11393             -2.11393              2.48069         *
 * Mg        5     -2.11393             -2.11393              2.48069         *
 * Mg        6      0.00000              2.01766             -0.10553         *
 * Mg        7      2.01766             -0.00000             -0.10553         *
 * Mg        8     -2.01766              0.00000             -0.10553         *
 * Mg        9      0.00000             -2.01766             -0.10553         *
 * Ca        1      2.90379              2.90379             -2.15251         *
 * Ca        2     -2.90379              2.90379             -2.15251         *
 * Ca        3      0.00000              0.00000             -1.51675         *
 * Ca        4      2.90379             -2.90379             -2.15251         *
 * Ca        5     -2.90379             -2.90379             -2.15251         *

 *********** Symmetrised Stress Tensor ***********
 *          Cartesian components (GPa)           *
 *             x             y             z     *
 *  x      6.833566      0.000000      0.000000  *
 *  y      0.000000      6.833566      0.000000  *
 *  z      0.000000      0.000000      6.833566  *
 *  Pressure:   -6.8336                          *

 Pseudo atomic calculation performed for O 2s2 2p4

[...]

 Pseudo atomic calculation performed for Mg 2p6 3s2

[...]

 Pseudo atomic calculation performed for Ca 3s2 3p6 4s2

 Converged in 24 iterations to a total energy of -1000.4330 eV

Charge spilling parameter for spin component 1 = 0.33%

     Atomic Populations (Mulliken)
Species   Ion     s      p      d      f     Total  Charge (e)
  O        1     1.97   4.51   0.00   0.00   6.48    -0.48
  O        2     1.97   4.51   0.00   0.00   6.48    -0.48
  O        3     1.97   4.51   0.00   0.00   6.48    -0.48
  O        4     1.97   4.51   0.00   0.00   6.48    -0.48
  O        5     1.96   4.59   0.00   0.00   6.55    -0.55
  O        6     1.96   4.59   0.00   0.00   6.55    -0.55
  O        7     1.91   4.94   0.00   0.00   6.84    -0.84
  O        8     1.96   4.59   0.00   0.00   6.55    -0.55
  O        9     1.96   4.59   0.00   0.00   6.55    -0.55
  O       10     1.95   4.70   0.00   0.00   6.65    -0.65
  O       11     1.95   4.70   0.00   0.00   6.65    -0.65
  O       12     1.95   4.70   0.00   0.00   6.65    -0.65
  O       13     1.95   4.70   0.00   0.00   6.65    -0.65
  Mg       1     0.84   6.82   0.00   0.00   7.66     0.34
  Mg       2     0.84   6.82   0.00   0.00   7.66     0.34
  Mg       3     0.87   6.82   0.00   0.00   7.69     0.31
  Mg       4     0.84   6.82   0.00   0.00   7.66     0.34
  Mg       5     0.84   6.82   0.00   0.00   7.66     0.34
  Mg       6     0.80   6.87   0.00   0.00   7.67     0.33
  Mg       7     0.80   6.87   0.00   0.00   7.67     0.33
  Mg       8     0.80   6.87   0.00   0.00   7.67     0.33
  Mg       9     0.80   6.87   0.00   0.00   7.67     0.33
  Ca       1     2.23   5.98   0.91   0.00   9.11     0.89
  Ca       2     2.23   5.98   0.91   0.00   9.11     0.89
  Ca       3     2.27   5.99   0.69   0.00   8.95     1.05
  Ca       4     2.23   5.98   0.91   0.00   9.11     0.89
  Ca       5     2.23   5.98   0.91   0.00   9.11     0.89

            Bond              Population      Length (A)
         O 4  -- O 13             -0.04        1.97949
         O 3  -- O 12             -0.04        1.97949
         O 2  -- O 11             -0.04        1.97949
         O 1  -- O 10             -0.04        1.97949
         O 2  -- O 3              -0.05        1.99991
         O 1  -- O 4              -0.05        1.99991
         O 8  -- O 9              -0.06        2.02976
         O 6  -- O 9              -0.06        2.02976
         O 5  -- O 8              -0.06        2.02976
         O 5  -- O 6              -0.06        2.02976
         O 11 -- O 12             -0.10        2.22315
         O 10 -- O 13             -0.10        2.22315
         O 7  -- Ca 3              0.20        2.41732
         O 7  -- Mg 3              0.17        2.44122
         O 9  -- Ca 5              0.25        2.47539
         O 8  -- Ca 4              0.25        2.47539
         O 6  -- Ca 2              0.25        2.47539
         O 5  -- Ca 1              0.25        2.47539
         O 13 -- Ca 4              0.22        2.48415
         O 12 -- Ca 2              0.22        2.48415
         O 11 -- Ca 1              0.22        2.48415
         O 10 -- Ca 1              0.22        2.48415
         O 13 -- Ca 5              0.22        2.48415
         O 12 -- Ca 5              0.22        2.48415
         O 11 -- Ca 4              0.22        2.48415
         O 10 -- Ca 2              0.22        2.48415
         O 7  -- Mg 9              0.18        2.51440
         O 7  -- Mg 8              0.18        2.51440
         O 7  -- Mg 7              0.18        2.51440
         O 7  -- Mg 6              0.18        2.51440
         O 5  -- Mg 1              0.24        2.52889
         O 9  -- Mg 5              0.24        2.52889
         O 8  -- Mg 4              0.24        2.52889
         O 6  -- Mg 2              0.24        2.52889
         Mg 4 -- Mg 5             -0.02        2.54598
         Mg 2 -- Mg 5             -0.02        2.54598
         Mg 1 -- Mg 4             -0.02        2.54598
         Mg 1 -- Mg 2             -0.02        2.54598
         O 4  -- Mg 5              0.24        2.56927
         O 3  -- Mg 5              0.24        2.56927
         O 2  -- Mg 4              0.24        2.56927
         O 1  -- Mg 2              0.24        2.56927
         O 4  -- Mg 4              0.24        2.56927
         O 3  -- Mg 2              0.24        2.56927
         O 2  -- Mg 1              0.24        2.56927
         O 1  -- Mg 1              0.24        2.56927
         Mg 7 -- Mg 8             -0.02        2.57441
         Mg 6 -- Mg 9             -0.02        2.57441
         Mg 5 -- Ca 5             -0.29        2.67316
         Mg 4 -- Ca 4             -0.29        2.67316
         Mg 2 -- Ca 2             -0.29        2.67316
         Mg 1 -- Ca 1             -0.29        2.67316
         Ca 4 -- Ca 5             -0.19        2.70134
         Ca 2 -- Ca 5             -0.19        2.70134
         Ca 1 -- Ca 4             -0.19        2.70134
         Ca 1 -- Ca 2             -0.19        2.70134
         O 13 -- Ca 3              0.13        2.71204
         O 12 -- Ca 3              0.13        2.71204
         O 11 -- Ca 3              0.13        2.71204
         O 10 -- Ca 3              0.13        2.71204
[...]
         O 10 -- Mg 6              0.16        2.80424
         O 4  -- Mg 3              0.10        2.83288
         O 3  -- Mg 3              0.10        2.83288
         O 2  -- Mg 3              0.10        2.83288
         O 1  -- Mg 3              0.10        2.83288
         O 2  -- Mg 7              0.10        2.84220
         O 1  -- Mg 6              0.10        2.84220
         O 4  -- Mg 9              0.10        2.84220
         O 3  -- Mg 8              0.10        2.84220
         O 6  -- O 8              -0.01        2.87052
         O 5  -- O 9              -0.01        2.87052
         O 4  -- O 10             -0.01        2.89214
         O 3  -- O 11             -0.01        2.89214
         O 2  -- O 12             -0.01        2.89214
         O 1  -- O 13             -0.01        2.89214

Writing model to dan_0.check

Writing analysis data to dan_0.castep_bin

 A BibTeX formatted list of references used in this run has been written to
 dan_0.bib

Initialisation time =     32.97 s
Calculation time    =  21858.04 s
Finalisation time   =      1.49 s
Total time          =  21892.50 s

Overall parallel efficiency rating: Excellent (96%)

Data was distributed by:-
k-point (2-way); efficiency rating: Excellent (96%)