 Compiled for linux_x86_64_gfortran on Wed Nov 21 15:08:09 2012
 from source code version eaed21d6e002+  2012-10-31
 using fast optimisation, fftw3 FFTs and openblas LAPACK and BLAS.

 Atomic calculation performed for O: 1s2 2s2 2p4

 Converged in 60 iterations to an ae energy of -2027.926 eV

   | Pseudopotential Report - Date of generation 30-04-2016   |
   | Element: O Ionic charge:  6.00 Level of theory: LDA      |
   |               Reference Electronic Structure             |
   |         Orbital         Occupation         Energy        |
   |            2s              2.000           -0.873        |
   |            2p              4.000           -0.338        |
   |                 Pseudopotential Definition               |
   |        Beta     l      e      Rc     scheme   norm       |
   |          1      0   -0.873   1.300     qc      0         |
   |          2      0    0.250   1.300     qc      0         |
   |          3      1   -0.338   1.300     qc      0         |
   |          4      1    0.250   1.300     qc      0         |
   |         loc     2    0.000   1.004     pn      0         |
   | Augmentation charge Rinner = 0.701                       |
   | Partial core correction Rc = 0.701                       |
   | "2|1.0|1.3|0.7|13|16|18|20:21(qc=7)"                     |
   |      Author: Chris J. Pickard, Cambridge University      |

 Atomic calculation performed for Ca: 1s2 2s2 2p6 3s2 3p6 4s2

 Converged in 44 iterations to an ae energy of -18468.058 eV

   | Pseudopotential Report - Date of generation 30-04-2016   |
   | Element: Ca Ionic charge: 10.00 Level of theory: LDA     |
   |               Reference Electronic Structure             |
   |         Orbital         Occupation         Energy        |
   |            3s              2.000           -1.721        |
   |            3p              6.000           -1.028        |
   |            4s              2.000           -0.142        |
   |                 Pseudopotential Definition               |
   |        Beta     l      e      Rc     scheme   norm       |
   |          1      0   -1.721   2.005     qc      0         |
   |          2      0   -0.142   2.005     qc      0         |
   |          3      1   -1.028   2.005     qc      0         |
   |          4      1    0.250   2.005     qc      0         |
   |          5      2    0.000   2.005     qc      0         |
   |          6      2    1.000   2.005     qc      0         |
   |         loc     3    0.000   1.601     pn      0         |
   | Augmentation charge Rinner = 1.401                       |
   | Partial core correction Rc = 1.401                       |
   | "3|1.6|2.0|1.4|7|9|10|30U:40U:31:32U=0U=1.0"             |
   |      Author: Chris J. Pickard, Cambridge University      |

 Pseudo atomic calculation performed for O 2s2 2p4

 Converged in 28 iterations to a total energy of -428.5589 eV

 Pseudo atomic calculation performed for Ca 3s2 3p6 4s2

[...]

 Calculation parallelised over 2 processes.
 Data is distributed by k-point(2-way)

 ************************************ Title ************************************
 MgO

 ***************************** General Parameters ******************************

 output verbosity                               : normal  (1)
 write checkpoint data to                       : Mg0Ca100.check
 type of calculation                            : single point energy
 stress calculation                             : on
 density difference calculation                 : off
 electron localisation func (ELF) calculation   : off
 Hirshfeld analysis                             : off
 unlimited duration calculation
 timing information                             : on
 write final potential to formatted file        : off
 write final density to formatted file          : off
 write BibTeX reference list                    : on

 output         length unit                     : A
 output           mass unit                     : amu
 output           time unit                     : ps
 output         charge unit                     : e
 output         energy unit                     : eV
 output          force unit                     : eV/A
 output       velocity unit                     : A/ps
 output       pressure unit                     : GPa
 output     inv_length unit                     : 1/A
 output      frequency unit                     : cm-1
 output force constant unit                     : eV/A**2
 output         volume unit                     : A**3
 output   IR intensity unit                     : (D/A)**2/amu
 output         dipole unit                     : D
 output         efield unit                     : eV/A/e
 output        entropy unit                     : J/mol/K

 wavefunctions paging                           : none
 random number generator seed                   : randomised (1653712)
 data distribution                              : optimal for this architecture
 optimization strategy                          : maximize speed(+++)

 *********************** Exchange-Correlation Parameters ***********************

 using functional                               : Local Density Approximation
 Divergence correction                          : off
 DFT+D: Semi-empirical dispersion correction    : off

 ************************* Pseudopotential Parameters **************************

 pseudopotential representation                 : reciprocal space
 <beta|phi> representation                      : reciprocal space

 **************************** Basis Set Parameters *****************************

 plane wave basis set cut-off                   :   280.0000   eV
 size of standard grid                          :     2.0000
 size of   fine   gmax                          :    17.1454   1/A
 largest prime factor in FFT                    :          5
 finite basis set correction                    : automatic
 number of sample energies                      :          3
           sample  spacing                      :     5.0000   eV

 **************************** Electronic Parameters ****************************

 number of  electrons                           :  64.00
 net charge of system                           :  0.000
 net spin   of system                           :  0.000
 number of  up  spins                           :  32.00
 number of down spins                           :  32.00
 treating system as non-spin-polarized
 number of bands                                :         38

 ********************* Electronic Minimization Parameters **********************

 Method: Treating system as metallic with density mixing treatment of electrons,
         and number of  SD  steps               :          1
         and number of  CG  steps               :          4

 total energy / atom convergence tol.           : 0.1000E-06   eV
 eigen-energy convergence tolerance             : 0.2500E-07   eV
 max force / atom convergence tol.              : ignored
 convergence tolerance window                   :          3   cycles
 max. number of SCF cycles                      :         60
 number of fixed-spin iterations                :         10
 smearing scheme                                : Gaussian
 smearing width                                 : 0.2000       eV
 Fermi energy convergence tolerance             : 0.2500E-08   eV
 periodic dipole correction                     : NONE

 ************************** Density Mixing Parameters **************************

 density-mixing scheme                          : Pulay
 max. length of mixing history                  :         30
 charge density mixing amplitude                : 0.8000
 cut-off energy for mixing                      :  280.0       eV
 charge density mixing g-vector                 :  1.500       1/A

 *********************** Population Analysis Parameters ************************

 Population analysis with cutoff                :  3.000       A

                                      Unit Cell
        Real Lattice(A)                      Reciprocal Lattice(1/A)
   4.2000000   0.0000000   0.0000000        1.4959965   0.0000000   0.0000000
   0.0000000   4.2000000   0.0000000        0.0000000   1.4959965   0.0000000
   0.0000000   0.0000000   4.2000000        0.0000000   0.0000000   1.4959965

                       Lattice parameters(A)       Cell Angles
                    a =    4.200000          alpha =   90.000000
                    b =    4.200000          beta  =   90.000000
                    c =    4.200000          gamma =   90.000000

                       Current cell volume =   74.088000       A**3

                                     Cell Contents
                         Total number of ions in cell =    8
                      Total number of species in cell =    2
                        Max number of any one species =    4

            x  Element    Atom        Fractional coordinates of atoms  x
            x            Number           u          v          w      x
            x  O            1         0.500000   0.500000   0.500000   x
            x  O            2         0.500000   0.000000   0.000000   x
            x  O            3         0.000000   0.500000   0.000000   x
            x  O            4         0.000000   0.000000   0.500000   x
            x  Ca           1         0.000000   0.000000   0.000000   x
            x  Ca           2         0.000000   0.500000   0.500000   x
            x  Ca           3         0.500000   0.000000   0.500000   x
            x  Ca           4         0.500000   0.500000   0.000000   x

                         No user defined ionic velocities

                                   Details of Species

                               Mass of species in AMU
                                    O   15.9994000
                                    Ca   40.0780000

                          Electric Quadrupole Moment (Barn)
                                    O   -0.0255800 Isotope 17
                                    Ca   -0.0408000 Isotope 43

                          Files used for pseudopotentials:
                                    O Pseudopotential generated on-the-fly
                                    Ca Pseudopotential generated on-the-fly

                              k-Points For BZ Sampling
                       MP grid size for SCF calculation is  3  3  3
                         Number of kpoints used =           4

             +  Number       Fractional coordinates        Weight  +
             +     1  -0.333333   0.000000   0.000000   0.2222222  +
             +     2   0.000000   0.000000   0.000000   0.0370370  +
             +     3   0.000000   0.333333  -0.333333   0.4444444  +
             +     4   0.333333  -0.333333  -0.333333   0.2962963  +

                               Symmetry and Constraints

                      Number of symmetry operations   =          48
                      Number of ionic constraints     =           3
                      Maximum deviation from symmetry =  0.00000         ANG
               Point group of crystal =    32: Oh, m-3m, 4/m -3 2/m
           Set iprint > 1 for details on symmetry rotations/translations

                          Centre of mass is constrained
             Set iprint > 1 for details of linear ionic constraints

                         Number of cell constraints= 5
                         Cell constraints are:  1 1 1 0 0 0

                         External pressure/stress (GPa)
                          0.00000   0.00000   0.00000
                                    0.00000   0.00000
                                              0.00000

Final energy, E             =  -5758.941426201     eV
Final free energy (E-TS)    =  -5758.941426201     eV
(energies not corrected for finite basis set)

NB est. 0K energy (E-0.5TS)      =  -5758.941426201     eV

Calculating total energy with cut-off of  275.000eV.
------------------------------------------------------------------------ <-- SCF
SCF loop      Energy           Fermi           Energy gain       Timer   <-- SCF
                               energy          per atom          (sec)   <-- SCF
------------------------------------------------------------------------ <-- SCF
Initial  -5.75894143E+003  0.00000000E+000                        21.90  <-- SCF
      1  -5.76144098E+003  1.13626316E+001   3.12444807E-001      22.21  <-- SCF
      2  -5.76144602E+003  1.13626316E+001   6.29884830E-004      22.63  <-- SCF
      3  -5.76144390E+003  1.13377292E+001  -2.65845103E-004      23.06  <-- SCF
      4  -5.76142786E+003  1.13558705E+001  -2.00419789E-003      23.48  <-- SCF
      5  -5.76142794E+003  1.13554422E+001   9.31749528E-006      23.93  <-- SCF
      6  -5.76142793E+003  1.13548175E+001  -3.97451174E-007      24.34  <-- SCF
      7  -5.76142793E+003  1.13549069E+001  -1.46909103E-008      24.65  <-- SCF
      8  -5.76142793E+003  1.13548699E+001  -6.45107326E-010      24.96  <-- SCF
------------------------------------------------------------------------ <-- SCF

[...]

Calculating total energy with cut-off of  280.000eV.
------------------------------------------------------------------------ <-- SCF
SCF loop      Energy           Fermi           Energy gain       Timer   <-- SCF
                               energy          per atom          (sec)   <-- SCF
------------------------------------------------------------------------ <-- SCF
Initial  -5.76142793E+003  0.00000000E+000                        25.19  <-- SCF
      1  -5.76322427E+003  1.13548788E+001   2.24542263E-001      25.47  <-- SCF
      2  -5.76322796E+003  1.13548788E+001   4.61029773E-004      25.87  <-- SCF
      3  -5.76322688E+003  1.13378012E+001  -1.35020393E-004      26.30  <-- SCF
      4  -5.76321952E+003  1.13503194E+001  -9.19636296E-004      26.74  <-- SCF
      5  -5.76321951E+003  1.13493004E+001  -1.80084267E-006      27.16  <-- SCF
      6  -5.76321951E+003  1.13488180E+001  -2.03962963E-007      27.55  <-- SCF
      7  -5.76321951E+003  1.13489290E+001  -1.82436893E-008      27.85  <-- SCF
      8  -5.76321951E+003  1.13489120E+001   7.83158167E-010      28.15  <-- SCF
------------------------------------------------------------------------ <-- SCF

Final energy, E             =  -5763.219507531     eV
Final free energy (E-TS)    =  -5763.219507531     eV
(energies not corrected for finite basis set)

NB est. 0K energy (E-0.5TS)      =  -5763.219507531     eV

 For future reference: finite basis dEtot/dlog(Ecut) =    -106.508861eV
 Total energy corrected for finite basis set =   -5763.339772 eV

 ***************** Symmetrised Forces *****************
 *            Cartesian components (eV/A)             *
 *                   x            y            z      *
 * O         1      0.00000      0.00000      0.00000 *
 * O         2      0.00000      0.00000      0.00000 *
 * O         3      0.00000      0.00000      0.00000 *
 * O         4      0.00000      0.00000      0.00000 *
 * Ca        1      0.00000      0.00000      0.00000 *
 * Ca        2      0.00000      0.00000      0.00000 *
 * Ca        3      0.00000      0.00000      0.00000 *
 * Ca        4      0.00000      0.00000      0.00000 *

 *********** Symmetrised Stress Tensor ***********
 *          Cartesian components (GPa)           *
 *             x             y             z     *
 *  x   -108.298090      0.000000      0.000000  *
 *  y      0.000000   -108.298090      0.000000  *
 *  z      0.000000      0.000000   -108.298090  *
 *  Pressure:  108.2981                          *

 Pseudo atomic calculation performed for O 2s2 2p4

[...]

 Pseudo atomic calculation performed for Ca 3s2 3p6 4s2

 Converged in 24 iterations to a total energy of -1000.3898 eV

Charge spilling parameter for spin component 1 = 0.16%

     Atomic Populations (Mulliken)
Species   Ion     s      p      d      f     Total  Charge (e)
  O        1     1.84   5.01   0.00   0.00   6.85    -0.85
  O        2     1.84   5.01   0.00   0.00   6.85    -0.85
  O        3     1.84   5.01   0.00   0.00   6.85    -0.85
  O        4     1.84   5.01   0.00   0.00   6.85    -0.85
  Ca       1     2.14   5.99   1.02   0.00   9.15     0.85
  Ca       2     2.14   5.99   1.02   0.00   9.15     0.85
  Ca       3     2.14   5.99   1.02   0.00   9.15     0.85
  Ca       4     2.14   5.99   1.02   0.00   9.15     0.85

            Bond              Population      Length (A)
          O 4 -- Ca 3              0.17        2.10000
          O 4 -- Ca 2              0.17        2.10000
          O 4 -- Ca 1              0.17        2.10000
          O 3 -- Ca 4              0.17        2.10000
          O 3 -- Ca 2              0.17        2.10000
          O 3 -- Ca 1              0.17        2.10000
          O 2 -- Ca 4              0.17        2.10000
          O 2 -- Ca 3              0.17        2.10000
          O 2 -- Ca 1              0.17        2.10000
          O 1 -- Ca 4              0.17        2.10000
          O 1 -- Ca 3              0.17        2.10000
          O 1 -- Ca 2              0.17        2.10000
         Ca 3 -- Ca 4             -0.25        2.96985
         Ca 2 -- Ca 4             -0.25        2.96985
         Ca 2 -- Ca 3             -0.25        2.96985
         Ca 1 -- Ca 4             -0.25        2.96985
         Ca 1 -- Ca 3             -0.25        2.96985
         Ca 1 -- Ca 2             -0.25        2.96985
          O 3 -- O 4              -0.04        2.96985
          O 2 -- O 4              -0.04        2.96985
          O 2 -- O 3              -0.04        2.96985
          O 1 -- O 4              -0.04        2.96985
          O 1 -- O 3              -0.04        2.96985
          O 1 -- O 2              -0.04        2.96985

Writing model to Mg0Ca100.check

Writing analysis data to Mg0Ca100.castep_bin

 A BibTeX formatted list of references used in this run has been written to
 Mg0Ca100.bib

Initialisation time =     14.77 s
Calculation time    =     15.90 s
Finalisation time   =      0.10 s
Total time          =     30.76 s

Overall parallel efficiency rating: Good (75%)

Data was distributed by:-
k-point (2-way); efficiency rating: Good (75%)

Parallel notes:
1) Calculation only took 30.7 s, so efficiency estimates may be inaccurate.