 Compiled for linux_x86_64_gfortran on Wed Nov 21 15:08:09 2012
 from source code version eaed21d6e002+  2012-10-31
 using fast optimisation, fftw3 FFTs and openblas LAPACK and BLAS.

 Atomic calculation performed for O: 1s2 2s2 2p4

 Converged in 60 iterations to an ae energy of -2027.926 eV

   | Pseudopotential Report - Date of generation 30-04-2016   |
   | Element: O Ionic charge:  6.00 Level of theory: LDA      |
   |               Reference Electronic Structure             |
   |         Orbital         Occupation         Energy        |
   |            2s              2.000           -0.873        |
   |            2p              4.000           -0.338        |
   |                 Pseudopotential Definition               |
   |        Beta     l      e      Rc     scheme   norm       |
   |          1      0   -0.873   1.300     qc      0         |
   |          2      0    0.250   1.300     qc      0         |
   |          3      1   -0.338   1.300     qc      0         |
   |          4      1    0.250   1.300     qc      0         |
   |         loc     2    0.000   1.004     pn      0         |
   | Augmentation charge Rinner = 0.701                       |
   | Partial core correction Rc = 0.701                       |
   | "2|1.0|1.3|0.7|13|16|18|20:21(qc=7)"                     |
   |      Author: Chris J. Pickard, Cambridge University      |

 Atomic calculation performed for Mg: 1s2 2s2 2p6 3s2

[...]

 Identity difference:   5.17267234911703770E-004

   | Pseudopotential Report - Date of generation 30-04-2016   |
   | Element: Mg Ionic charge:  8.00 Level of theory: LDA     |
   |               Reference Electronic Structure             |
   |         Orbital         Occupation         Energy        |
   |            2p              6.000           -1.717        |
   |            3s              2.000           -0.176        |
   |                 Pseudopotential Definition               |
   |        Beta     l      e      Rc     scheme   norm       |
   |          1      0   -0.176   1.994     qc      1         |
   |          2      1   -1.717   1.994     qc      0         |
   |          3      1    0.000   1.994     qc      0         |
   |          4      1    0.250   1.994     qc      0         |
   |         loc     2    0.000   1.605     pn      0         |
   | Augmentation charge Rinner = 1.405                       |
   | Partial core correction Rc = 1.405                       |
   | "2|1.6|2|1.4|6|7|8|30NH:21U:31UU:32LGG(qc=4.5)[]"        |
   |      Author: Chris J. Pickard, Cambridge University      |

 Doing a self consistent calculation for the test configuration

 Atomic calculation performed for Mg: 1s2 2s2 2p6 3s2

 Converged in 47 iterations to an ae energy of -5427.407 eV

 AE eigenvalue nl 10 =      -46.06264936
 AE eigenvalue nl 20 =       -2.91364591
 AE eigenvalue nl 21 =       -1.71672732
 AE eigenvalue nl 30 =       -0.17593422
 PS eigenvalue nl 21 =       -1.71622098
 PS eigenvalue nl 30 =       -0.17592300

 Pseudo atomic calculation performed for O 2s2 2p4

 Converged in 28 iterations to a total energy of -428.5589 eV

 Pseudo atomic calculation performed for Mg 2p6 3s2

[...]

 Calculation parallelised over 2 processes.
 Data is distributed by k-point(2-way)

 ************************************ Title ************************************
 MgO

 ***************************** General Parameters ******************************

 output verbosity                               : normal  (1)
 write checkpoint data to                       : Mg100Ca0.check
 type of calculation                            : single point energy
 stress calculation                             : on
 density difference calculation                 : off
 electron localisation func (ELF) calculation   : off
 Hirshfeld analysis                             : off
 unlimited duration calculation
 timing information                             : on
 write final potential to formatted file        : off
 write final density to formatted file          : off
 write BibTeX reference list                    : on

 output         length unit                     : A
 output           mass unit                     : amu
 output           time unit                     : ps
 output         charge unit                     : e
 output         energy unit                     : eV
 output          force unit                     : eV/A
 output       velocity unit                     : A/ps
 output       pressure unit                     : GPa
 output     inv_length unit                     : 1/A
 output      frequency unit                     : cm-1
 output force constant unit                     : eV/A**2
 output         volume unit                     : A**3
 output   IR intensity unit                     : (D/A)**2/amu
 output         dipole unit                     : D
 output         efield unit                     : eV/A/e
 output        entropy unit                     : J/mol/K

 wavefunctions paging                           : none
 random number generator seed                   : randomised (2909128)
 data distribution                              : optimal for this architecture
 optimization strategy                          : maximize speed(+++)

 *********************** Exchange-Correlation Parameters ***********************

 using functional                               : Local Density Approximation
 Divergence correction                          : off
 DFT+D: Semi-empirical dispersion correction    : off

 ************************* Pseudopotential Parameters **************************

 pseudopotential representation                 : reciprocal space
 <beta|phi> representation                      : reciprocal space

 **************************** Basis Set Parameters *****************************

 plane wave basis set cut-off                   :   280.0000   eV
 size of standard grid                          :     2.0000
 size of   fine   gmax                          :    17.1454   1/A
 largest prime factor in FFT                    :          5
 finite basis set correction                    : automatic
 number of sample energies                      :          3
           sample  spacing                      :     5.0000   eV

 **************************** Electronic Parameters ****************************

 number of  electrons                           :  56.00
 net charge of system                           :  0.000
 net spin   of system                           :  0.000
 number of  up  spins                           :  28.00
 number of down spins                           :  28.00
 treating system as non-spin-polarized
 number of bands                                :         34

 ********************* Electronic Minimization Parameters **********************

 Method: Treating system as metallic with density mixing treatment of electrons,
         and number of  SD  steps               :          1
         and number of  CG  steps               :          4

 total energy / atom convergence tol.           : 0.1000E-06   eV
 eigen-energy convergence tolerance             : 0.2857E-07   eV
 max force / atom convergence tol.              : ignored
 convergence tolerance window                   :          3   cycles
 max. number of SCF cycles                      :         60
 number of fixed-spin iterations                :         10
 smearing scheme                                : Gaussian
 smearing width                                 : 0.2000       eV
 Fermi energy convergence tolerance             : 0.2857E-08   eV
 periodic dipole correction                     : NONE

 ************************** Density Mixing Parameters **************************

 density-mixing scheme                          : Pulay
 max. length of mixing history                  :         30
 charge density mixing amplitude                : 0.8000
 cut-off energy for mixing                      :  280.0       eV
 charge density mixing g-vector                 :  1.500       1/A

 *********************** Population Analysis Parameters ************************

 Population analysis with cutoff                :  3.000       A

                                      Unit Cell
        Real Lattice(A)                      Reciprocal Lattice(1/A)
   4.2000000   0.0000000   0.0000000        1.4959965   0.0000000   0.0000000
   0.0000000   4.2000000   0.0000000        0.0000000   1.4959965   0.0000000
   0.0000000   0.0000000   4.2000000        0.0000000   0.0000000   1.4959965

                       Lattice parameters(A)       Cell Angles
                    a =    4.200000          alpha =   90.000000
                    b =    4.200000          beta  =   90.000000
                    c =    4.200000          gamma =   90.000000

                       Current cell volume =   74.088000       A**3

                                     Cell Contents
                         Total number of ions in cell =    8
                      Total number of species in cell =    2
                        Max number of any one species =    4

            x  Element    Atom        Fractional coordinates of atoms  x
            x            Number           u          v          w      x
            x  O            1         0.500000   0.500000   0.500000   x
            x  O            2         0.500000   0.000000   0.000000   x
            x  O            3         0.000000   0.500000   0.000000   x
            x  O            4         0.000000   0.000000   0.500000   x
            x  Mg           1         0.000000   0.000000   0.000000   x
            x  Mg           2         0.000000   0.500000   0.500000   x
            x  Mg           3         0.500000   0.000000   0.500000   x
            x  Mg           4         0.500000   0.500000   0.000000   x

                         No user defined ionic velocities

                                   Details of Species

                               Mass of species in AMU
                                    O   15.9994000
                                    Mg   24.3050000

                          Electric Quadrupole Moment (Barn)
                                    O   -0.0255800 Isotope 17
                                    Mg    0.1994000 Isotope 25

                          Files used for pseudopotentials:
                                    O Pseudopotential generated on-the-fly
                                    Mg Pseudopotential generated on-the-fly

                              k-Points For BZ Sampling
                       MP grid size for SCF calculation is  3  3  3
                         Number of kpoints used =           4

             +  Number       Fractional coordinates        Weight  +
             +     1  -0.333333   0.000000   0.000000   0.2222222  +
             +     2   0.000000   0.000000   0.000000   0.0370370  +
             +     3   0.000000   0.333333  -0.333333   0.4444444  +
             +     4   0.333333  -0.333333  -0.333333   0.2962963  +

                               Symmetry and Constraints

                      Number of symmetry operations   =          48
                      Number of ionic constraints     =           3
                      Maximum deviation from symmetry =  0.00000         ANG
               Point group of crystal =    32: Oh, m-3m, 4/m -3 2/m
           Set iprint > 1 for details on symmetry rotations/translations

                          Centre of mass is constrained
             Set iprint > 1 for details of linear ionic constraints

                         Number of cell constraints= 5
                         Cell constraints are:  1 1 1 0 0 0

                         External pressure/stress (GPa)
                          0.00000   0.00000   0.00000
                                    0.00000   0.00000
                                              0.00000

Final energy, E             =  -5859.576737339     eV
Final free energy (E-TS)    =  -5859.576737339     eV
(energies not corrected for finite basis set)

NB est. 0K energy (E-0.5TS)      =  -5859.576737339     eV

Calculating total energy with cut-off of  275.000eV.
------------------------------------------------------------------------ <-- SCF
SCF loop      Energy           Fermi           Energy gain       Timer   <-- SCF
                               energy          per atom          (sec)   <-- SCF
------------------------------------------------------------------------ <-- SCF
Initial  -5.85957674E+003  0.00000000E+000                        18.14  <-- SCF
      1  -5.86194527E+003  8.28302953E+000   2.96066259E-001      18.40  <-- SCF
      2  -5.86194974E+003  8.28302437E+000   5.58513673E-004      18.71  <-- SCF
      3  -5.86194273E+003  8.35258588E+000  -8.75292648E-004      19.05  <-- SCF
      4  -5.86193332E+003  8.32116624E+000  -1.17639581E-003      19.41  <-- SCF
      5  -5.86193333E+003  8.32274133E+000   8.07236341E-007      19.72  <-- SCF
      6  -5.86193333E+003  8.32294312E+000  -1.39170329E-008      19.98  <-- SCF
      7  -5.86193333E+003  8.32292984E+000   9.83370556E-010      20.22  <-- SCF
------------------------------------------------------------------------ <-- SCF

[...]

Calculating total energy with cut-off of  280.000eV.
------------------------------------------------------------------------ <-- SCF
SCF loop      Energy           Fermi           Energy gain       Timer   <-- SCF
                               energy          per atom          (sec)   <-- SCF
------------------------------------------------------------------------ <-- SCF
Initial  -5.86193333E+003  0.00000000E+000                        20.38  <-- SCF
      1  -5.86373982E+003  8.32290663E+000   2.25811068E-001      20.61  <-- SCF
      2  -5.86374139E+003  8.32290663E+000   1.96879039E-004      20.91  <-- SCF
      3  -5.86373782E+003  8.36999611E+000  -4.47074095E-004      21.25  <-- SCF
      4  -5.86373345E+003  8.34754140E+000  -5.46164239E-004      21.60  <-- SCF
      5  -5.86373342E+003  8.34944800E+000  -3.70576485E-006      21.92  <-- SCF
      6  -5.86373342E+003  8.34960128E+000  -5.98471664E-009      22.16  <-- SCF
      7  -5.86373342E+003  8.34957669E+000  -2.74168197E-010      22.43  <-- SCF
------------------------------------------------------------------------ <-- SCF

Final energy, E             =  -5863.733416330     eV
Final free energy (E-TS)    =  -5863.733416330     eV
(energies not corrected for finite basis set)

NB est. 0K energy (E-0.5TS)      =  -5863.733416330     eV

 For future reference: finite basis dEtot/dlog(Ecut) =    -103.327142eV
 Total energy corrected for finite basis set =   -5863.850088 eV

 ***************** Symmetrised Forces *****************
 *            Cartesian components (eV/A)             *
 *                   x            y            z      *
 * O         1      0.00000      0.00000      0.00000 *
 * O         2      0.00000      0.00000      0.00000 *
 * O         3      0.00000      0.00000      0.00000 *
 * O         4      0.00000      0.00000      0.00000 *
 * Mg        1      0.00000      0.00000      0.00000 *
 * Mg        2      0.00000      0.00000      0.00000 *
 * Mg        3      0.00000      0.00000      0.00000 *
 * Mg        4      0.00000      0.00000      0.00000 *

 *********** Symmetrised Stress Tensor ***********
 *          Cartesian components (GPa)           *
 *             x             y             z     *
 *  x     -9.402947      0.000000      0.000000  *
 *  y      0.000000     -9.402947      0.000000  *
 *  z      0.000000      0.000000     -9.402947  *
 *  Pressure:    9.4029                          *

 Pseudo atomic calculation performed for O 2s2 2p4

[...]

 Pseudo atomic calculation performed for Mg 2p6 3s2

 Converged in 23 iterations to a total energy of -1024.5020 eV

Charge spilling parameter for spin component 1 = 0.30%

     Atomic Populations (Mulliken)
Species   Ion     s      p      d      f     Total  Charge (e)
  O        1     1.85   5.10   0.00   0.00   6.95    -0.95
  O        2     1.85   5.10   0.00   0.00   6.95    -0.95
  O        3     1.85   5.10   0.00   0.00   6.95    -0.95
  O        4     1.85   5.10   0.00   0.00   6.95    -0.95
  Mg       1     0.40   6.65   0.00   0.00   7.05     0.95
  Mg       2     0.40   6.65   0.00   0.00   7.05     0.95
  Mg       3     0.40   6.65   0.00   0.00   7.05     0.95
  Mg       4     0.40   6.65   0.00   0.00   7.05     0.95

            Bond              Population      Length (A)
          O 4 -- Mg 3              0.60        2.10000
          O 4 -- Mg 2              0.60        2.10000
          O 4 -- Mg 1              0.60        2.10000
          O 3 -- Mg 4              0.60        2.10000
          O 3 -- Mg 2              0.60        2.10000
          O 3 -- Mg 1              0.60        2.10000
          O 2 -- Mg 4              0.60        2.10000
          O 2 -- Mg 3              0.60        2.10000
          O 2 -- Mg 1              0.60        2.10000
          O 1 -- Mg 4              0.60        2.10000
          O 1 -- Mg 3              0.60        2.10000
          O 1 -- Mg 2              0.60        2.10000
         Mg 3 -- Mg 4             -0.56        2.96985
         Mg 2 -- Mg 4             -0.56        2.96985
         Mg 2 -- Mg 3             -0.56        2.96985
         Mg 1 -- Mg 4             -0.56        2.96985
         Mg 1 -- Mg 3             -0.56        2.96985
         Mg 1 -- Mg 2             -0.56        2.96985
          O 3 -- O 4              -0.15        2.96985
          O 2 -- O 4              -0.15        2.96985
          O 2 -- O 3              -0.15        2.96985
          O 1 -- O 4              -0.15        2.96985
          O 1 -- O 3              -0.15        2.96985
          O 1 -- O 2              -0.15        2.96985

Writing model to Mg100Ca0.check

Writing analysis data to Mg100Ca0.castep_bin

 A BibTeX formatted list of references used in this run has been written to
 Mg100Ca0.bib

Initialisation time =     13.05 s
Calculation time    =     10.79 s
Finalisation time   =      0.31 s
Total time          =     24.14 s

Overall parallel efficiency rating: Good (72%)

Data was distributed by:-
k-point (2-way); efficiency rating: Good (72%)

Parallel notes:
1) Calculation only took 23.9 s, so efficiency estimates may be inaccurate.