 Compiled for linux_x86_64_gfortran on Wed Nov 21 15:08:09 2012
 from source code version eaed21d6e002+  2012-10-31
 using fast optimisation, fftw3 FFTs and openblas LAPACK and BLAS.

 Atomic calculation performed for O: 1s2 2s2 2p4

 Converged in 60 iterations to an ae energy of -2027.926 eV

   | Pseudopotential Report - Date of generation 30-04-2016   |
   | Element: O Ionic charge:  6.00 Level of theory: LDA      |
   |               Reference Electronic Structure             |
   |         Orbital         Occupation         Energy        |
   |            2s              2.000           -0.873        |
   |            2p              4.000           -0.338        |
   |                 Pseudopotential Definition               |
   |        Beta     l      e      Rc     scheme   norm       |
   |          1      0   -0.873   1.300     qc      0         |
   |          2      0    0.250   1.300     qc      0         |
   |          3      1   -0.338   1.300     qc      0         |
   |          4      1    0.250   1.300     qc      0         |
   |         loc     2    0.000   1.004     pn      0         |
   | Augmentation charge Rinner = 0.701                       |
   | Partial core correction Rc = 0.701                       |
   | "2|1.0|1.3|0.7|13|16|18|20:21(qc=7)"                     |
   |      Author: Chris J. Pickard, Cambridge University      |

 Atomic calculation performed for Mg: 1s2 2s2 2p6 3s2

[...]

 Identity difference:   5.17267234911703770E-004

   | Pseudopotential Report - Date of generation 30-04-2016   |
   | Element: Mg Ionic charge:  8.00 Level of theory: LDA     |
   |               Reference Electronic Structure             |
   |         Orbital         Occupation         Energy        |
   |            2p              6.000           -1.717        |
   |            3s              2.000           -0.176        |
   |                 Pseudopotential Definition               |
   |        Beta     l      e      Rc     scheme   norm       |
   |          1      0   -0.176   1.994     qc      1         |
   |          2      1   -1.717   1.994     qc      0         |
   |          3      1    0.000   1.994     qc      0         |
   |          4      1    0.250   1.994     qc      0         |
   |         loc     2    0.000   1.605     pn      0         |
   | Augmentation charge Rinner = 1.405                       |
   | Partial core correction Rc = 1.405                       |
   | "2|1.6|2|1.4|6|7|8|30NH:21U:31UU:32LGG(qc=4.5)[]"        |
   |      Author: Chris J. Pickard, Cambridge University      |

 Doing a self consistent calculation for the test configuration

 Atomic calculation performed for Mg: 1s2 2s2 2p6 3s2

[...]

 AE eigenvalue nl 10 =      -46.06264936
 AE eigenvalue nl 20 =       -2.91364591
 AE eigenvalue nl 21 =       -1.71672732
 AE eigenvalue nl 30 =       -0.17593422
 PS eigenvalue nl 21 =       -1.71622098
 PS eigenvalue nl 30 =       -0.17592300

 Atomic calculation performed for Ca: 1s2 2s2 2p6 3s2 3p6 4s2

 Converged in 44 iterations to an ae energy of -18468.058 eV

   | Pseudopotential Report - Date of generation 30-04-2016   |
   | Element: Ca Ionic charge: 10.00 Level of theory: LDA     |
   |               Reference Electronic Structure             |
   |         Orbital         Occupation         Energy        |
   |            3s              2.000           -1.721        |
   |            3p              6.000           -1.028        |
   |            4s              2.000           -0.142        |
   |                 Pseudopotential Definition               |
   |        Beta     l      e      Rc     scheme   norm       |
   |          1      0   -1.721   2.005     qc      0         |
   |          2      0   -0.142   2.005     qc      0         |
   |          3      1   -1.028   2.005     qc      0         |
   |          4      1    0.250   2.005     qc      0         |
   |          5      2    0.000   2.005     qc      0         |
   |          6      2    1.000   2.005     qc      0         |
   |         loc     3    0.000   1.601     pn      0         |
   | Augmentation charge Rinner = 1.401                       |
   | Partial core correction Rc = 1.401                       |
   | "3|1.6|2.0|1.4|7|9|10|30U:40U:31:32U=0U=1.0"             |
   |      Author: Chris J. Pickard, Cambridge University      |

 Pseudo atomic calculation performed for O 2s2 2p4

 Converged in 28 iterations to a total energy of -428.5589 eV

 Pseudo atomic calculation performed for Mg 2p6 3s2

[...]

 Pseudo atomic calculation performed for Ca 3s2 3p6 4s2

[...]

 Calculation parallelised over 2 processes.
 Data is distributed by k-point(2-way)

 ************************************ Title ************************************
 MgO

 ***************************** General Parameters ******************************

 output verbosity                               : normal  (1)
 write checkpoint data to                       : Mg25Ca75.check
 type of calculation                            : single point energy
 stress calculation                             : on
 density difference calculation                 : off
 electron localisation func (ELF) calculation   : off
 Hirshfeld analysis                             : off
 unlimited duration calculation
 timing information                             : on
 write final potential to formatted file        : off
 write final density to formatted file          : off
 write BibTeX reference list                    : on

 output         length unit                     : A
 output           mass unit                     : amu
 output           time unit                     : ps
 output         charge unit                     : e
 output         energy unit                     : eV
 output          force unit                     : eV/A
 output       velocity unit                     : A/ps
 output       pressure unit                     : GPa
 output     inv_length unit                     : 1/A
 output      frequency unit                     : cm-1
 output force constant unit                     : eV/A**2
 output         volume unit                     : A**3
 output   IR intensity unit                     : (D/A)**2/amu
 output         dipole unit                     : D
 output         efield unit                     : eV/A/e
 output        entropy unit                     : J/mol/K

 wavefunctions paging                           : none
 random number generator seed                   : randomised (2838492)
 data distribution                              : optimal for this architecture
 optimization strategy                          : maximize speed(+++)

 *********************** Exchange-Correlation Parameters ***********************

 using functional                               : Local Density Approximation
 Divergence correction                          : off
 DFT+D: Semi-empirical dispersion correction    : off

 ************************* Pseudopotential Parameters **************************

 pseudopotential representation                 : reciprocal space
 <beta|phi> representation                      : reciprocal space

 **************************** Basis Set Parameters *****************************

 plane wave basis set cut-off                   :   280.0000   eV
 size of standard grid                          :     2.0000
 size of   fine   gmax                          :    17.1454   1/A
 largest prime factor in FFT                    :          5
 finite basis set correction                    : automatic
 number of sample energies                      :          3
           sample  spacing                      :     5.0000   eV

 **************************** Electronic Parameters ****************************

 number of  electrons                           :  62.00
 net charge of system                           :  0.000
 net spin   of system                           :  0.000
 number of  up  spins                           :  31.00
 number of down spins                           :  31.00
 treating system as non-spin-polarized
 number of bands                                :         37

 ********************* Electronic Minimization Parameters **********************

 Method: Treating system as metallic with density mixing treatment of electrons,
         and number of  SD  steps               :          1
         and number of  CG  steps               :          4

 total energy / atom convergence tol.           : 0.1000E-06   eV
 eigen-energy convergence tolerance             : 0.2581E-07   eV
 max force / atom convergence tol.              : ignored
 convergence tolerance window                   :          3   cycles
 max. number of SCF cycles                      :         60
 number of fixed-spin iterations                :         10
 smearing scheme                                : Gaussian
 smearing width                                 : 0.2000       eV
 Fermi energy convergence tolerance             : 0.2581E-08   eV
 periodic dipole correction                     : NONE

 ************************** Density Mixing Parameters **************************

 density-mixing scheme                          : Pulay
 max. length of mixing history                  :         30
 charge density mixing amplitude                : 0.8000
 cut-off energy for mixing                      :  280.0       eV
 charge density mixing g-vector                 :  1.500       1/A

 *********************** Population Analysis Parameters ************************

 Population analysis with cutoff                :  3.000       A

                                      Unit Cell
        Real Lattice(A)                      Reciprocal Lattice(1/A)
   4.2000000   0.0000000   0.0000000        1.4959965   0.0000000   0.0000000
   0.0000000   4.2000000   0.0000000        0.0000000   1.4959965   0.0000000
   0.0000000   0.0000000   4.2000000        0.0000000   0.0000000   1.4959965

                       Lattice parameters(A)       Cell Angles
                    a =    4.200000          alpha =   90.000000
                    b =    4.200000          beta  =   90.000000
                    c =    4.200000          gamma =   90.000000

                       Current cell volume =   74.088000       A**3

                                     Cell Contents
                         Total number of ions in cell =    8
                      Total number of species in cell =    3
                        Max number of any one species =    4

            x  Element    Atom        Fractional coordinates of atoms  x
            x            Number           u          v          w      x
            x  O            1         0.500000   0.500000   0.500000   x
            x  O            2         0.500000   0.000000   0.000000   x
            x  O            3         0.000000   0.500000   0.000000   x
            x  O            4         0.000000   0.000000   0.500000   x
            x  Mg           1         0.500000   0.500000   0.000000   x
            x  Ca           1         0.000000   0.000000   0.000000   x
            x  Ca           2         0.000000   0.500000   0.500000   x
            x  Ca           3         0.500000   0.000000   0.500000   x

                         No user defined ionic velocities

                                   Details of Species

                               Mass of species in AMU
                                    O   15.9994000
                                    Mg   24.3050000
                                    Ca   40.0780000

                          Electric Quadrupole Moment (Barn)
                                    O   -0.0255800 Isotope 17
                                    Mg    0.1994000 Isotope 25
                                    Ca   -0.0408000 Isotope 43

                          Files used for pseudopotentials:
                                    O Pseudopotential generated on-the-fly
                                    Mg Pseudopotential generated on-the-fly
                                    Ca Pseudopotential generated on-the-fly

                              k-Points For BZ Sampling
                       MP grid size for SCF calculation is  3  3  3
                         Number of kpoints used =           4

             +  Number       Fractional coordinates        Weight  +
             +     1  -0.333333   0.000000   0.000000   0.2222222  +
             +     2   0.000000   0.000000   0.000000   0.0370370  +
             +     3   0.000000   0.333333  -0.333333   0.4444444  +
             +     4   0.333333  -0.333333  -0.333333   0.2962963  +

                               Symmetry and Constraints

                      Number of symmetry operations   =          48
                      Number of ionic constraints     =           3
                      Maximum deviation from symmetry = 0.233147E-15     ANG
               Point group of crystal =    32: Oh, m-3m, 4/m -3 2/m
           Set iprint > 1 for details on symmetry rotations/translations

                          Centre of mass is constrained
             Set iprint > 1 for details of linear ionic constraints

                         Number of cell constraints= 5
                         Cell constraints are:  1 1 1 0 0 0

                         External pressure/stress (GPa)
                          0.00000   0.00000   0.00000
                                    0.00000   0.00000
                                              0.00000

Final energy, E             =  -5784.163726304     eV
Final free energy (E-TS)    =  -5784.163726304     eV
(energies not corrected for finite basis set)

NB est. 0K energy (E-0.5TS)      =  -5784.163726304     eV

Calculating total energy with cut-off of  275.000eV.
------------------------------------------------------------------------ <-- SCF
SCF loop      Energy           Fermi           Energy gain       Timer   <-- SCF
                               energy          per atom          (sec)   <-- SCF
------------------------------------------------------------------------ <-- SCF
Initial  -5.78416373E+003  0.00000000E+000                        31.08  <-- SCF
      1  -5.78663414E+003  1.11765853E+001   3.08802333E-001      31.39  <-- SCF
      2  -5.78664017E+003  1.11765850E+001   7.53171650E-004      31.88  <-- SCF
      3  -5.78663606E+003  1.11521229E+001  -5.13742299E-004      32.35  <-- SCF
      4  -5.78662264E+003  1.11702579E+001  -1.67776684E-003      32.81  <-- SCF
      5  -5.78662264E+003  1.11694782E+001   7.85015086E-007      33.29  <-- SCF
      6  -5.78662264E+003  1.11688216E+001  -1.02374598E-006      33.74  <-- SCF
      7  -5.78662263E+003  1.11685772E+001  -1.06050250E-006      34.17  <-- SCF
      8  -5.78662263E+003  1.11688432E+001  -6.80241651E-008      34.52  <-- SCF
      9  -5.78662263E+003  1.11687640E+001  -3.89916286E-009      34.86  <-- SCF
------------------------------------------------------------------------ <-- SCF

[...]

Calculating total energy with cut-off of  280.000eV.
------------------------------------------------------------------------ <-- SCF
SCF loop      Energy           Fermi           Energy gain       Timer   <-- SCF
                               energy          per atom          (sec)   <-- SCF
------------------------------------------------------------------------ <-- SCF
Initial  -5.78662263E+003  0.00000000E+000                        35.17  <-- SCF
      1  -5.78841757E+003  1.11687693E+001   2.24367857E-001      35.47  <-- SCF
      2  -5.78842070E+003  1.11687693E+001   3.91243509E-004      35.94  <-- SCF
      3  -5.78841868E+003  1.11514813E+001  -2.52106760E-004      36.41  <-- SCF
      4  -5.78841245E+003  1.11642662E+001  -7.78838947E-004      36.87  <-- SCF
      5  -5.78841236E+003  1.11626063E+001  -1.15223228E-005      37.33  <-- SCF
      6  -5.78841236E+003  1.11620138E+001  -4.26457222E-008      37.79  <-- SCF
      7  -5.78841235E+003  1.11619632E+001  -1.02826028E-006      38.21  <-- SCF
      8  -5.78841235E+003  1.11622155E+001  -5.27630701E-008      38.56  <-- SCF
      9  -5.78841235E+003  1.11621419E+001  -3.14945399E-009      38.90  <-- SCF
------------------------------------------------------------------------ <-- SCF

Final energy, E             =  -5788.412351332     eV
Final free energy (E-TS)    =  -5788.412351332     eV
(energies not corrected for finite basis set)

NB est. 0K energy (E-0.5TS)      =  -5788.412351332     eV

 For future reference: finite basis dEtot/dlog(Ecut) =    -105.747371eV
 Total energy corrected for finite basis set =   -5788.531756 eV

 ***************** Symmetrised Forces *****************
 *            Cartesian components (eV/A)             *
 *                   x            y            z      *
 * O         1      0.00000      0.00000      0.00000 *
 * O         2      0.00000      0.00000      0.00000 *
 * O         3      0.00000      0.00000      0.00000 *
 * O         4      0.00000      0.00000      0.00000 *
 * Mg        1      0.00000      0.00000      0.00000 *
 * Ca        1      0.00000      0.00000      0.00000 *
 * Ca        2      0.00000      0.00000      0.00000 *
 * Ca        3      0.00000      0.00000      0.00000 *

 *********** Symmetrised Stress Tensor ***********
 *          Cartesian components (GPa)           *
 *             x             y             z     *
 *  x    -83.463186      0.000000      0.000000  *
 *  y      0.000000    -83.463186      0.000000  *
 *  z      0.000000      0.000000    -83.463186  *
 *  Pressure:   83.4632                          *

 Pseudo atomic calculation performed for O 2s2 2p4

[...]

 Pseudo atomic calculation performed for Mg 2p6 3s2

[...]

 Pseudo atomic calculation performed for Ca 3s2 3p6 4s2

 Converged in 24 iterations to a total energy of -1000.3898 eV

Charge spilling parameter for spin component 1 = 0.21%

     Atomic Populations (Mulliken)
Species   Ion     s      p      d      f     Total  Charge (e)
  O        1     1.84   5.06   0.00   0.00   6.90    -0.90
  O        2     1.84   5.06   0.00   0.00   6.90    -0.90
  O        3     1.84   5.06   0.00   0.00   6.90    -0.90
  O        4     1.84   5.01   0.00   0.00   6.85    -0.85
  Mg       1     0.30   6.84   0.00   0.00   7.15     0.85
  Ca       1     2.11   5.99   1.00   0.00   9.10     0.90
  Ca       2     2.11   5.99   1.00   0.00   9.10     0.90
  Ca       3     2.11   5.99   1.00   0.00   9.10     0.90

            Bond              Population      Length (A)
          O 4 -- Ca 3              0.16        2.10000
          O 4 -- Ca 2              0.16        2.10000
          O 4 -- Ca 1              0.16        2.10000
          O 3 -- Ca 2              0.20        2.10000
          O 3 -- Ca 1              0.20        2.10000
          O 3 -- Mg 1              0.52        2.10000
          O 2 -- Ca 3              0.20        2.10000
          O 2 -- Ca 1              0.20        2.10000
          O 2 -- Mg 1              0.52        2.10000
          O 1 -- Ca 3              0.20        2.10000
          O 1 -- Ca 2              0.20        2.10000
          O 1 -- Mg 1              0.52        2.10000
         Ca 2 -- Ca 3             -0.34        2.96985
         Ca 1 -- Ca 3             -0.34        2.96985
         Ca 1 -- Ca 2             -0.34        2.96985
         Mg 1 -- Ca 3             -0.36        2.96985
         Mg 1 -- Ca 2             -0.36        2.96985
         Mg 1 -- Ca 1             -0.36        2.96985
          O 3 -- O 4              -0.05        2.96985
          O 2 -- O 4              -0.05        2.96985
          O 2 -- O 3              -0.10        2.96985
          O 1 -- O 4              -0.05        2.96985
          O 1 -- O 3              -0.10        2.96985
          O 1 -- O 2              -0.10        2.96985

Writing model to Mg25Ca75.check

Writing analysis data to Mg25Ca75.castep_bin

 A BibTeX formatted list of references used in this run has been written to
 Mg25Ca75.bib

Initialisation time =     23.14 s
Calculation time    =     18.24 s
Finalisation time   =      0.09 s
Total time          =     41.47 s

Overall parallel efficiency rating: Good (72%)

Data was distributed by:-
k-point (2-way); efficiency rating: Good (72%)

Parallel notes:
1) Calculation only took 41.4 s, so efficiency estimates may be inaccurate.